\ LP format - for model browsing. Use MPS format to capture full model detail.
\ Signature: 0x1c1d19d35078f9d6
Minimize
  y_vf[0]
Subject To
 one_hot_0: x_oh[0,0] + x_oh[0,1] + x_oh[0,2] = 1
 one_hot_1: x_oh[1,0] + x_oh[1,1] + x_oh[1,2] = 1
 inst_feat_0_0: x_wf[0,0] = 0
 inst_feat_0_1: x_wf[0,1] = 0
 inst_feat_0_2: x_wf[0,2] = 0.105648
 inst_feat_0_3: x_wf[0,3] = 0.028483
 inst_feat_0_4: x_wf[0,4] = 0
 inst_feat_0_5: x_wf[0,5] = 0
 inst_feat_0_6: x_wf[0,6] = 0.0004
 inst_feat_0_7: x_wf[0,7] = 0
 inst_feat_0_8: x_wf[0,8] = 0
 inst_feat_0_9: x_wf[0,9] = 0.1
 dec_oh_0_0: - x_oh[0,0] + x_wf[0,10] = 0
 dec_oh_0_1: - x_oh[0,1] + x_wf[0,11] = 0
 dec_oh_0_2: - x_oh[0,2] + x_wf[0,12] = 0
 trans_time_0: - 0.001501 x_oh[0,1] - 0.102 x_oh[0,2] + x_wf[0,13] = 0
 trans_power_0: - 0.205063494 x_oh[0,1] - 0.057118931 x_oh[0,2]
   + x_wf[0,14] = 0
 inst_feat_1_0: x_wf[1,0] = 0
 inst_feat_1_1: x_wf[1,1] = 0
 inst_feat_1_2: x_wf[1,2] = 0.105648
 inst_feat_1_3: x_wf[1,3] = 0.028483
 inst_feat_1_4: x_wf[1,4] = 0
 inst_feat_1_5: x_wf[1,5] = 0
 inst_feat_1_6: x_wf[1,6] = 0.0004
 inst_feat_1_7: x_wf[1,7] = 0
 inst_feat_1_8: x_wf[1,8] = 1
 inst_feat_1_9: x_wf[1,9] = 0.1
 dec_oh_1_0: - x_oh[1,0] + x_wf[1,10] = 0
 dec_oh_1_1: - x_oh[1,1] + x_wf[1,11] = 0
 dec_oh_1_2: - x_oh[1,2] + x_wf[1,12] = 0
 trans_time_1: - 0.023501 x_oh[1,1] - 0.122 x_oh[1,2] + x_wf[1,13] = 0
 trans_power_1: - 0.233133494 x_oh[1,1] - 0.081795247 x_oh[1,2]
   + x_wf[1,14] = 0
 dec_oh_0_0: - x_oh[0,0] + x_pred[0,0] = 0
 dec_oh_0_1: - x_oh[0,1] + x_pred[0,1] = 0
 dec_oh_0_2: - x_oh[0,2] + x_pred[0,2] = 0
 trans_t_0: - 0.001501 x_oh[0,1] - 0.102 x_oh[0,2] + x_pred[0,3] = 0
 trans_p_0: - 0.205063494 x_oh[0,1] - 0.057118931 x_oh[0,2] + x_pred[0,4]
   = 0
 inst_emb_0_0: x_pred[0,5] = -0.00539661198854446
 inst_emb_0_1: x_pred[0,6] = -0.00492504518479109
 inst_emb_0_2: x_pred[0,7] = -0.00640321848914027
 inst_emb_0_3: x_pred[0,8] = -0.00874264445155859
 inst_emb_0_4: x_pred[0,9] = 0.00253194384276867
 inst_emb_0_5: x_pred[0,10] = 7.6590885873883963e-04
 inst_emb_0_6: x_pred[0,11] = -0.00655758939683437
 inst_emb_0_7: x_pred[0,12] = -0.00347088882699609
 inst_emb_0_8: x_pred[0,13] = -0.00418053893372416
 inst_emb_0_9: x_pred[0,14] = 0.00223710527643561
 inst_emb_0_10: x_pred[0,15] = -0.0015483241295442
 inst_emb_0_11: x_pred[0,16] = -0.0422392152249813
 inst_emb_0_12: x_pred[0,17] = 8.0180587247014046e-04
 inst_emb_0_13: x_pred[0,18] = 2.8416165150702e-04
 inst_emb_0_14: x_pred[0,19] = 8.2110875518992543e-04
 inst_emb_0_15: x_pred[0,20] = -0.00629219552502036
 inst_emb_0_16: x_pred[0,21] = -0.0036286935210228
 inst_emb_0_17: x_pred[0,22] = 0.0010773764224723
 inst_emb_0_18: x_pred[0,23] = -2.8409529477357864e-04
 inst_emb_0_19: x_pred[0,24] = 0.00473521091043949
 inst_emb_0_20: x_pred[0,25] = -0.0043244706466794
 inst_emb_0_21: x_pred[0,26] = 0.0976803004741669
 inst_emb_0_22: x_pred[0,27] = 0.00341067742556334
 inst_emb_0_23: x_pred[0,28] = -1.1463218834251165e-04
 inst_emb_0_24: x_pred[0,29] = -0.00198225048370659
 inst_emb_0_25: x_pred[0,30] = 0.00768784713000059
 inst_emb_0_26: x_pred[0,31] = -0.00339774414896965
 inst_emb_0_27: x_pred[0,32] = -0.00557132624089718
 inst_emb_0_28: x_pred[0,33] = -0.00406808545812964
 inst_emb_0_29: x_pred[0,34] = 0.00430331425741315
 inst_emb_0_30: x_pred[0,35] = -0.00120954064186662
 inst_emb_0_31: x_pred[0,36] = -0.00691587431356311
 dec_oh_1_0: - x_oh[1,0] + x_pred[1,0] = 0
 dec_oh_1_1: - x_oh[1,1] + x_pred[1,1] = 0
 dec_oh_1_2: - x_oh[1,2] + x_pred[1,2] = 0
 trans_t_1: - 0.023501 x_oh[1,1] - 0.122 x_oh[1,2] + x_pred[1,3] = 0
 trans_p_1: - 0.233133494 x_oh[1,1] - 0.081795247 x_oh[1,2] + x_pred[1,4]
   = 0
 inst_emb_1_0: x_pred[1,5] = -0.00539661198854446
 inst_emb_1_1: x_pred[1,6] = -0.00492504518479109
 inst_emb_1_2: x_pred[1,7] = -0.00640321848914027
 inst_emb_1_3: x_pred[1,8] = -0.00874264445155859
 inst_emb_1_4: x_pred[1,9] = 0.00253194384276867
 inst_emb_1_5: x_pred[1,10] = 7.6590885873883963e-04
 inst_emb_1_6: x_pred[1,11] = -0.00655758939683437
 inst_emb_1_7: x_pred[1,12] = -0.00347088882699609
 inst_emb_1_8: x_pred[1,13] = -0.00418053893372416
 inst_emb_1_9: x_pred[1,14] = 0.00223710527643561
 inst_emb_1_10: x_pred[1,15] = -0.0015483241295442
 inst_emb_1_11: x_pred[1,16] = -0.0422392152249813
 inst_emb_1_12: x_pred[1,17] = 8.0180587247014046e-04
 inst_emb_1_13: x_pred[1,18] = 2.8416165150702e-04
 inst_emb_1_14: x_pred[1,19] = 8.2110875518992543e-04
 inst_emb_1_15: x_pred[1,20] = -0.00629219552502036
 inst_emb_1_16: x_pred[1,21] = -0.0036286935210228
 inst_emb_1_17: x_pred[1,22] = 0.0010773764224723
 inst_emb_1_18: x_pred[1,23] = -2.8409529477357864e-04
 inst_emb_1_19: x_pred[1,24] = 0.00473521091043949
 inst_emb_1_20: x_pred[1,25] = -0.0043244706466794
 inst_emb_1_21: x_pred[1,26] = 0.0976803004741669
 inst_emb_1_22: x_pred[1,27] = 0.00341067742556334
 inst_emb_1_23: x_pred[1,28] = -1.1463218834251165e-04
 inst_emb_1_24: x_pred[1,29] = -0.00198225048370659
 inst_emb_1_25: x_pred[1,30] = 0.00768784713000059
 inst_emb_1_26: x_pred[1,31] = -0.00339774414896965
 inst_emb_1_27: x_pred[1,32] = -0.00557132624089718
 inst_emb_1_28: x_pred[1,33] = -0.00406808545812964
 inst_emb_1_29: x_pred[1,34] = 0.00430331425741315
 inst_emb_1_30: x_pred[1,35] = -0.00120954064186662
 inst_emb_1_31: x_pred[1,36] = -0.00691587431356311
 sequential.linear_0.R106: 0.1030030697584152 x_pred[0,0]
   - 0.106019914150238 x_pred[0,1] + 0.3239108324050903 x_pred[0,2]
   + 2.196256875991821 x_pred[0,3] + 0.4625044465065002 x_pred[0,4]
   - 0.00879974570125341 x_pred[0,5] - 0.0333454832434654 x_pred[0,6]
   - 0.13629350066185 x_pred[0,7] + 0.1038747951388359 x_pred[0,8]
   - 0.0523248836398125 x_pred[0,9] - 0.0925188735127449 x_pred[0,10]
   + 0.0181692838668823 x_pred[0,11] - 0.0374050699174404 x_pred[0,12]
   - 0.1332228630781174 x_pred[0,13] - 0.1148994863033295 x_pred[0,14]
   + 0.023726049810648 x_pred[0,15] - 0.0541810914874077 x_pred[0,16]
   + 0.105942539870739 x_pred[0,17] + 0.1726626604795456 x_pred[0,18]
   - 0.175601601600647 x_pred[0,19] + 0.1819634884595871 x_pred[0,20]
   + 0.0287363491952419 x_pred[0,21] + 0.1424398571252823 x_pred[0,22]
   - 0.0965486913919449 x_pred[0,23] + 0.00728300493210554 x_pred[0,24]
   - 0.0491497367620468 x_pred[0,25] + 0.2231581658124924 x_pred[0,26]
   - 0.0222894474864006 x_pred[0,27] - 0.0694744065403938 x_pred[0,28]
   - 0.022442540153861 x_pred[0,29] + 0.1359539479017258 x_pred[0,30]
   - 0.2095372229814529 x_pred[0,31] + 0.1219770461320877 x_pred[0,32]
   - 0.0712548345327377 x_pred[0,33] - 0.0888763442635536 x_pred[0,34]
   - 0.0372118093073368 x_pred[0,35] + 0.1214856132864952 x_pred[0,36]
   + sequential.linear_0.act[0,0] = 0.0131845315918326
 sequential.linear_0.R107: 0.0274640340358019 x_pred[0,0]
   + 0.0353917255997658 x_pred[0,1] + 0.1632425338029861 x_pred[0,2]
   + 0.0203544236719608 x_pred[0,3] - 0.0107770338654518 x_pred[0,4]
   + 0.00744457636028528 x_pred[0,5] - 0.1345698684453964 x_pred[0,6]
   + 0.0255029611289501 x_pred[0,7] - 0.0603886991739273 x_pred[0,8]
   - 0.1332539916038513 x_pred[0,9] - 0.00386578030884266 x_pred[0,10]
   + 0.1974807232618332 x_pred[0,11] - 0.0438983850181103 x_pred[0,12]
   + 0.0617952533066273 x_pred[0,13] - 0.0921662747859955 x_pred[0,14]
   + 0.0604383759200573 x_pred[0,15] + 0.0785698443651199 x_pred[0,16]
   + 0.2447955757379532 x_pred[0,17] + 0.1378260254859924 x_pred[0,18]
   - 0.0747331976890564 x_pred[0,19] - 0.0715836212038994 x_pred[0,20]
   - 0.2207919955253601 x_pred[0,21] - 0.00300005078315735 x_pred[0,22]
   + 0.1730244010686874 x_pred[0,23] + 0.1587319225072861 x_pred[0,24]
   - 0.00707833841443062 x_pred[0,25] - 0.1081066057085991 x_pred[0,26]
   + 0.0185185074806213 x_pred[0,27] - 0.1599500924348831 x_pred[0,28]
   - 0.1115602254867554 x_pred[0,29] - 0.2334894686937332 x_pred[0,30]
   + 0.1205839589238167 x_pred[0,31] + 0.0243594367057085 x_pred[0,32]
   - 0.00331573747098446 x_pred[0,33] - 0.1595368087291718 x_pred[0,34]
   - 0.2025408148765564 x_pred[0,35] + 0.137985497713089 x_pred[0,36]
   + sequential.linear_0.act[0,1] = -0.2022718191146851
 sequential.linear_0.R108: 0.2312206774950027 x_pred[0,0]
   + 0.1517043709754944 x_pred[0,1] - 0.6793320178985596 x_pred[0,2]
   + 1.940301060676575 x_pred[0,3] + 2.973590850830078 x_pred[0,4]
   - 0.1621794104576111 x_pred[0,5] - 0.0782610327005386 x_pred[0,6]
   - 0.0739914253354073 x_pred[0,7] - 0.0809147581458092 x_pred[0,8]
   - 0.0383430495858192 x_pred[0,9] - 0.00600027851760387 x_pred[0,10]
   - 0.1024769023060799 x_pred[0,11] + 0.1181417778134346 x_pred[0,12]
   - 0.0666536539793015 x_pred[0,13] - 0.0509485341608524 x_pred[0,14]
   - 0.0401060618460178 x_pred[0,15] + 0.5972168445587158 x_pred[0,16]
   + 0.0315660983324051 x_pred[0,17] - 0.0256876684725285 x_pred[0,18]
   + 0.0192610621452332 x_pred[0,19] - 0.1055552065372467 x_pred[0,20]
   - 0.0334452390670776 x_pred[0,21] + 0.00869816169142723 x_pred[0,22]
   + 0.00134475820232183 x_pred[0,23] + 0.0588048584759235 x_pred[0,24]
   - 0.1330832690000534 x_pred[0,25] - 0.7585581541061401 x_pred[0,26]
   - 0.0588632561266422 x_pred[0,27] - 0.1028919741511345 x_pred[0,28]
   - 0.00412150146439672 x_pred[0,29] + 0.130238875746727 x_pred[0,30]
   + 0.0169929713010788 x_pred[0,31] + 0.1027425155043602 x_pred[0,32]
   + 0.0743981078267097 x_pred[0,33] + 0.0275892149657011 x_pred[0,34]
   - 0.0819760113954544 x_pred[0,35] - 0.1622583866119385 x_pred[0,36]
   + sequential.linear_0.act[0,2] = -0.209830567240715
 sequential.linear_0.R109: 0.1331662386655807 x_pred[0,0]
   + 0.0630884915590286 x_pred[0,1] + 0.0577102303504944 x_pred[0,2]
   + 0.0806281194090843 x_pred[0,3] + 0.2454551309347153 x_pred[0,4]
   + 0.065275602042675 x_pred[0,5] - 0.017397191375494 x_pred[0,6]
   - 0.0669408664107323 x_pred[0,7] + 0.1728163510560989 x_pred[0,8]
   - 0.051014207303524 x_pred[0,9] - 0.088514469563961 x_pred[0,10]
   - 0.0168200675398111 x_pred[0,11] + 0.182912603020668 x_pred[0,12]
   - 0.0572695322334766 x_pred[0,13] - 0.0724214613437653 x_pred[0,14]
   + 0.1065494641661644 x_pred[0,15] - 0.2041742205619812 x_pred[0,16]
   + 0.1214792504906654 x_pred[0,17] + 0.157589390873909 x_pred[0,18]
   - 0.1208427250385284 x_pred[0,19] + 0.1645557582378387 x_pred[0,20]
   + 0.1022713705897331 x_pred[0,21] + 0.2255580872297287 x_pred[0,22]
   - 0.1091993823647499 x_pred[0,23] + 0.1280030608177185 x_pred[0,24]
   - 0.00130854034796357 x_pred[0,25] - 0.0416727773845196 x_pred[0,26]
   - 0.0492047667503357 x_pred[0,27] + 0.0858494564890862 x_pred[0,28]
   + 3.04006e-06 x_pred[0,29] - 0.1640277802944183 x_pred[0,30]
   + 0.0183012317866087 x_pred[0,31] + 0.0661992654204369 x_pred[0,32]
   + 0.000596647 x_pred[0,33] - 0.00516700418666005 x_pred[0,34]
   - 0.00847130361944437 x_pred[0,35] + 0.0481001883745193 x_pred[0,36]
   + sequential.linear_0.act[0,3] = -0.0216088984161615
 sequential.linear_0.R110: 0.0676283538341522 x_pred[0,0]
   - 0.233078196644783 x_pred[0,1] + 0.2023860663175583 x_pred[0,2]
   + 3.924478530883789 x_pred[0,3] + 0.700996994972229 x_pred[0,4]
   + 0.0807196944952011 x_pred[0,5] + 0.003373195650056 x_pred[0,6]
   - 0.1462009996175766 x_pred[0,7] - 0.1414408832788467 x_pred[0,8]
   + 0.0189235955476761 x_pred[0,9] - 0.0481642782688141 x_pred[0,10]
   - 0.2262470871210098 x_pred[0,11] - 0.1575269401073456 x_pred[0,12]
   + 0.0777027904987335 x_pred[0,13] + 0.2370191514492035 x_pred[0,14]
   + 0.2218123823404312 x_pred[0,15] - 0.0862606018781662 x_pred[0,16]
   - 0.1172037646174431 x_pred[0,17] + 0.0973080098628998 x_pred[0,18]
   + 0.1421938240528107 x_pred[0,19] + 0.00616700341925025 x_pred[0,20]
   - 0.0107774492353201 x_pred[0,21] + 0.0956965014338493 x_pred[0,22]
   - 0.1548362225294113 x_pred[0,23] + 0.2167341709136963 x_pred[0,24]
   - 0.0819836929440498 x_pred[0,25] + 0.2485825270414352 x_pred[0,26]
   + 0.1176449805498123 x_pred[0,27] + 0.1100479736924171 x_pred[0,28]
   + 0.1070544719696045 x_pred[0,29] + 0.2444072812795639 x_pred[0,30]
   - 0.0254773143678904 x_pred[0,31] - 0.0394053049385548 x_pred[0,32]
   - 0.1895112991333008 x_pred[0,33] - 0.00564899761229753 x_pred[0,34]
   - 0.076285682618618 x_pred[0,35] - 0.24516661465168 x_pred[0,36]
   + sequential.linear_0.act[0,4] = -0.166352242231369
 sequential.linear_0.R111: 0.1239787191152573 x_pred[0,0]
   - 0.0480798482894897 x_pred[0,1] + 0.2049748301506042 x_pred[0,2]
   + 2.477269172668457 x_pred[0,3] + 0.3738226592540741 x_pred[0,4]
   + 0.0648567751049995 x_pred[0,5] - 0.014278769493103 x_pred[0,6]
   - 0.0634276643395424 x_pred[0,7] + 0.1615509837865829 x_pred[0,8]
   + 0.2179286628961563 x_pred[0,9] - 0.0646688044071198 x_pred[0,10]
   - 0.0545983798801899 x_pred[0,11] + 0.0660924017429352 x_pred[0,12]
   - 0.0796719044446945 x_pred[0,13] + 0.0504351854324341 x_pred[0,14]
   - 0.0902020931243896 x_pred[0,15] - 0.2037810534238815 x_pred[0,16]
   + 0.0380443558096886 x_pred[0,17] + 0.0788472220301628 x_pred[0,18]
   + 0.0962260067462921 x_pred[0,19] + 0.1354152113199234 x_pred[0,20]
   - 0.1348831206560135 x_pred[0,21] - 0.1089484319090843 x_pred[0,22]
   - 0.140574038028717 x_pred[0,23] + 0.1503563970327377 x_pred[0,24]
   - 0.0112528493627906 x_pred[0,25] + 0.1835344135761261 x_pred[0,26]
   + 0.0681480243802071 x_pred[0,27] + 0.00179934629704803 x_pred[0,28]
   + 0.0736899822950363 x_pred[0,29] + 0.1022466793656349 x_pred[0,30]
   - 0.112096942961216 x_pred[0,31] - 0.1497713774442673 x_pred[0,32]
   - 0.061494130641222 x_pred[0,33] + 0.1490494757890701 x_pred[0,34]
   + 0.1584583222866058 x_pred[0,35] - 0.1776635944843292 x_pred[0,36]
   + sequential.linear_0.act[0,5] = -0.0266793258488178
 sequential.linear_0.R112: 0.0916938781738281 x_pred[0,0]
   + 0.011811631731689 x_pred[0,1] + 0.2830029726028442 x_pred[0,2]
   + 0.5212692618370056 x_pred[0,3] + 0.3568128347396851 x_pred[0,4]
   + 0.0877586379647255 x_pred[0,5] + 0.1188803240656853 x_pred[0,6]
   - 0.0994766056537628 x_pred[0,7] + 0.1076673120260239 x_pred[0,8]
   + 0.0590332262217999 x_pred[0,9] - 0.0302300807088614 x_pred[0,10]
   - 0.1019817888736725 x_pred[0,11] - 0.1062313094735146 x_pred[0,12]
   + 0.0396397858858109 x_pred[0,13] - 0.0663406178355217 x_pred[0,14]
   + 0.1290527731180191 x_pred[0,15] + 0.1800826042890549 x_pred[0,16]
   + 0.0350220240652561 x_pred[0,17] + 0.0280755516141653 x_pred[0,18]
   + 0.0800586864352226 x_pred[0,19] - 0.1727092415094376 x_pred[0,20]
   - 0.0934422090649605 x_pred[0,21] + 0.1157656013965607 x_pred[0,22]
   - 0.0665943250060081 x_pred[0,23] - 0.0866488665342331 x_pred[0,24]
   + 0.0426352322101593 x_pred[0,25] + 0.0126129547134042 x_pred[0,26]
   - 0.0282244831323624 x_pred[0,27] - 0.0590755194425583 x_pred[0,28]
   - 0.085881419479847 x_pred[0,29] + 0.049555741250515 x_pred[0,30]
   - 0.1341686248779297 x_pred[0,31] + 0.1154779866337776 x_pred[0,32]
   + 0.0237536169588566 x_pred[0,33] + 0.012913809157908 x_pred[0,34]
   - 0.078526183962822 x_pred[0,35] + 0.1168828904628754 x_pred[0,36]
   + sequential.linear_0.act[0,6] = 0.1126345619559288
 sequential.linear_0.R113: - 0.0518931709229946 x_pred[0,0]
   + 0.0620248578488827 x_pred[0,1] + 0.0514636933803558 x_pred[0,2]
   + 0.2001564353704453 x_pred[0,3] + 0.0509214513003826 x_pred[0,4]
   + 0.0202403124421835 x_pred[0,5] - 0.0362769924104214 x_pred[0,6]
   + 0.1467548757791519 x_pred[0,7] - 0.0320699736475945 x_pred[0,8]
   + 0.0475751906633377 x_pred[0,9] + 0.0450626276433468 x_pred[0,10]
   + 0.0354997031390667 x_pred[0,11] + 0.0424185730516911 x_pred[0,12]
   - 0.0695793256163597 x_pred[0,13] - 0.1455259919166565 x_pred[0,14]
   - 0.0354008004069328 x_pred[0,15] + 0.0830090418457985 x_pred[0,16]
   - 0.1450196206569672 x_pred[0,17] + 0.1144389659166336 x_pred[0,18]
   + 0.1082063764333725 x_pred[0,19] - 0.00543095357716084 x_pred[0,20]
   + 0.1504631638526917 x_pred[0,21] + 0.1058562099933624 x_pred[0,22]
   + 0.0897258818149567 x_pred[0,23] + 0.0780454725027084 x_pred[0,24]
   + 0.1428855061531067 x_pred[0,25] - 0.1974410861730576 x_pred[0,26]
   + 0.0937535315752029 x_pred[0,27] + 0.0198098998516798 x_pred[0,28]
   + 0.1899287104606628 x_pred[0,29] + 0.0763399302959442 x_pred[0,30]
   + 0.0751267746090889 x_pred[0,31] - 0.1629523038864136 x_pred[0,32]
   - 0.1527827382087708 x_pred[0,33] - 0.0747523903846741 x_pred[0,34]
   - 0.1342723518610001 x_pred[0,35] - 0.0833372548222542 x_pred[0,36]
   + sequential.linear_0.act[0,7] = -0.1075337752699852
 sequential.linear_0.R114: 0.0382712222635746 x_pred[0,0]
   + 0.0199897307902575 x_pred[0,1] + 0.1622913330793381 x_pred[0,2]
   + 0.1142764687538147 x_pred[0,3] + 0.1174073815345764 x_pred[0,4]
   - 0.0439964942634106 x_pred[0,5] + 0.1109126508235931 x_pred[0,6]
   + 0.2319285422563553 x_pred[0,7] - 0.1330283433198929 x_pred[0,8]
   + 0.1578695327043533 x_pred[0,9] + 0.2253981530666351 x_pred[0,10]
   + 0.1245853751897812 x_pred[0,11] + 0.2292459905147552 x_pred[0,12]
   + 0.2162629067897797 x_pred[0,13] - 0.438455730676651 x_pred[0,14]
   - 0.0815938487648964 x_pred[0,15] - 0.1597240120172501 x_pred[0,16]
   + 0.0506350360810757 x_pred[0,17] + 0.00341421063058078 x_pred[0,18]
   + 0.035807628184557 x_pred[0,19] - 0.069223053753376 x_pred[0,20]
   + 0.0571169704198837 x_pred[0,21] + 0.0550003200769424 x_pred[0,22]
   + 0.0828823447227478 x_pred[0,23] - 0.0371598266065121 x_pred[0,24]
   - 0.0257773026823997 x_pred[0,25] - 0.0861122906208038 x_pred[0,26]
   + 0.1781306266784668 x_pred[0,27] + 0.0772128328680992 x_pred[0,28]
   + 0.1903035938739777 x_pred[0,29] + 0.1685923635959625 x_pred[0,30]
   + 0.1497748792171478 x_pred[0,31] - 0.1987041532993317 x_pred[0,32]
   + 0.0183533448725939 x_pred[0,33] - 0.0675897747278214 x_pred[0,34]
   + 0.0947653278708458 x_pred[0,35] + 0.1019698604941368 x_pred[0,36]
   + sequential.linear_0.act[0,8] = -0.2382397949695587
 sequential.linear_0.R115: - 0.0721622332930565 x_pred[0,0]
   - 0.028528144583106 x_pred[0,1] + 0.1298425942659378 x_pred[0,2]
   + 0.1218681931495667 x_pred[0,3] + 0.2013729810714722 x_pred[0,4]
   - 0.0240817721933126 x_pred[0,5] - 0.1238493919372559 x_pred[0,6]
   - 0.0303677953779697 x_pred[0,7] + 0.0149774914607406 x_pred[0,8]
   - 0.1306028664112091 x_pred[0,9] - 0.0937024727463722 x_pred[0,10]
   + 0.0179313160479069 x_pred[0,11] + 0.1786768138408661 x_pred[0,12]
   + 0.1904158443212509 x_pred[0,13] + 0.0236620251089334 x_pred[0,14]
   + 0.0386971831321716 x_pred[0,15] + 0.0663057714700699 x_pred[0,16]
   - 0.2250249981880188 x_pred[0,17] + 0.0240293629467487 x_pred[0,18]
   - 0.1463394910097122 x_pred[0,19] - 0.0136107774451375 x_pred[0,20]
   + 0.104272186756134 x_pred[0,21] + 0.1825519055128098 x_pred[0,22]
   - 9.50899e-05 x_pred[0,23] - 0.1120259612798691 x_pred[0,24]
   - 0.022102776914835 x_pred[0,25] - 0.0355473197996616 x_pred[0,26]
   - 0.0435503646731377 x_pred[0,27] - 0.0383181609213352 x_pred[0,28]
   + 0.0822875425219536 x_pred[0,29] + 0.1574312746524811 x_pred[0,30]
   + 0.0872448235750198 x_pred[0,31] - 0.2033345997333527 x_pred[0,32]
   + 0.0418049357831478 x_pred[0,33] - 0.0366791971027851 x_pred[0,34]
   - 0.00330510921776295 x_pred[0,35] - 0.028140002861619 x_pred[0,36]
   + sequential.linear_0.act[0,9] = -0.1500314623117447
 sequential.linear_0.R116: 0.084579274058342 x_pred[0,0]
   - 0.0586859174072742 x_pred[0,1] + 0.2446272820234299 x_pred[0,2]
   + 0.2526925206184387 x_pred[0,3] + 0.298058807849884 x_pred[0,4]
   - 0.1369578242301941 x_pred[0,5] - 0.0086798807606101 x_pred[0,6]
   - 0.152081623673439 x_pred[0,7] - 0.2009905278682709 x_pred[0,8]
   + 0.063241109251976 x_pred[0,9] - 0.1058233380317688 x_pred[0,10]
   + 0.0676974430680275 x_pred[0,11] - 0.2948227226734161 x_pred[0,12]
   + 0.0153925251215696 x_pred[0,13] + 0.00994525849819183 x_pred[0,14]
   + 0.0233925953507423 x_pred[0,15] + 0.1574798077344894 x_pred[0,16]
   + 0.014722621999681 x_pred[0,17] - 0.1803297102451324 x_pred[0,18]
   + 0.2095492333173752 x_pred[0,19] - 0.0956298187375069 x_pred[0,20]
   - 0.0146814156323671 x_pred[0,21] - 0.0116077028214931 x_pred[0,22]
   - 0.0740324109792709 x_pred[0,23] + 0.0225694868713617 x_pred[0,24]
   + 0.044762596487999 x_pred[0,25] - 0.0934339985251427 x_pred[0,26]
   - 0.1235784962773323 x_pred[0,27] - 0.0566921234130859 x_pred[0,28]
   + 0.1448420286178589 x_pred[0,29] - 0.2272857576608658 x_pred[0,30]
   + 0.0597962029278278 x_pred[0,31] - 0.0233466029167175 x_pred[0,32]
   + 0.057044692337513 x_pred[0,33] + 0.1470998376607895 x_pred[0,34]
   + 0.054744578897953 x_pred[0,35] + 0.0210517551749945 x_pred[0,36]
   + sequential.linear_0.act[0,10] = 0.056146863847971
 sequential.linear_0.R117: - 0.0356272310018539 x_pred[0,0]
   - 0.2053497135639191 x_pred[0,1] + 0.3596113324165344 x_pred[0,2]
   + 3.054964065551758 x_pred[0,3] + 0.6787427067756653 x_pred[0,4]
   - 0.2427009493112564 x_pred[0,5] - 0.1676738858222961 x_pred[0,6]
   - 0.020173467695713 x_pred[0,7] - 0.0363320559263229 x_pred[0,8]
   + 0.0137143852189183 x_pred[0,9] + 0.0116243083029985 x_pred[0,10]
   + 0.1660475581884384 x_pred[0,11] + 0.1414034366607666 x_pred[0,12]
   - 0.1939023733139038 x_pred[0,13] - 0.0513707399368286 x_pred[0,14]
   + 0.00857429765164852 x_pred[0,15] + 0.3136208355426788 x_pred[0,16]
   + 0.0978214591741562 x_pred[0,17] + 0.0510489158332348 x_pred[0,18]
   + 0.1875700652599335 x_pred[0,19] - 0.167462021112442 x_pred[0,20]
   - 0.0507890842854977 x_pred[0,21] + 0.037169586867094 x_pred[0,22]
   - 0.0141874589025974 x_pred[0,23] + 0.0830065757036209 x_pred[0,24]
   - 0.2551965713500977 x_pred[0,25] - 0.2447929829359055 x_pred[0,26]
   - 0.2724944055080414 x_pred[0,27] - 0.274980217218399 x_pred[0,28]
   - 0.1093887984752655 x_pred[0,29] - 0.1749376803636551 x_pred[0,30]
   + 0.2113165408372879 x_pred[0,31] + 0.2010430693626404 x_pred[0,32]
   + 0.397062748670578 x_pred[0,33] + 0.0250772871077061 x_pred[0,34]
   - 0.1985517144203186 x_pred[0,35] - 0.0777781009674072 x_pred[0,36]
   + sequential.linear_0.act[0,11] = -0.0368240512907505
 sequential.linear_0.R118: - 0.1120813563466072 x_pred[0,0]
   - 0.0547089278697968 x_pred[0,1] + 0.0896916165947914 x_pred[0,2]
   + 0.8277840614318848 x_pred[0,3] + 0.1922133713960648 x_pred[0,4]
   + 0.00608761981129646 x_pred[0,5] - 0.126951739192009 x_pred[0,6]
   - 0.0916983857750893 x_pred[0,7] - 0.1591893881559372 x_pred[0,8]
   + 0.1087396889925003 x_pred[0,9] + 0.0455326326191425 x_pred[0,10]
   + 0.0840097144246101 x_pred[0,11] + 0.0269837267696857 x_pred[0,12]
   - 0.10399429500103 x_pred[0,13] + 3.8893654709681869e-04 x_pred[0,14]
   - 0.1408348381519318 x_pred[0,15] + 0.0166718084365129 x_pred[0,16]
   - 0.1490183919668198 x_pred[0,17] + 0.1062789335846901 x_pred[0,18]
   + 0.1554520428180695 x_pred[0,19] + 0.0419293865561485 x_pred[0,20]
   - 0.0228186901658773 x_pred[0,21] + 0.1467771530151367 x_pred[0,22]
   + 0.020130842924118 x_pred[0,23] + 0.141547292470932 x_pred[0,24]
   - 0.0991056859493256 x_pred[0,25] - 0.4870579242706299 x_pred[0,26]
   - 0.1059007942676544 x_pred[0,27] - 0.0776176601648331 x_pred[0,28]
   + 0.1359858363866806 x_pred[0,29] + 0.077189713716507 x_pred[0,30]
   + 0.0255311336368322 x_pred[0,31] + 0.0720909014344215 x_pred[0,32]
   + 0.1482777297496796 x_pred[0,33] - 0.0628337413072586 x_pred[0,34]
   + 0.0217229947447777 x_pred[0,35] - 0.0541076697409153 x_pred[0,36]
   + sequential.linear_0.act[0,12] = -0.1334034353494644
 sequential.linear_0.R119: 0.1688646376132965 x_pred[0,0]
   + 0.1530343294143677 x_pred[0,1] + 0.1777344197034836 x_pred[0,2]
   + 0.1998815983533859 x_pred[0,3] + 0.0490884482860565 x_pred[0,4]
   + 0.1412414908409119 x_pred[0,5] - 0.0638624355196953 x_pred[0,6]
   + 0.1459107547998428 x_pred[0,7] + 0.06635682284832 x_pred[0,8]
   - 0.0935415029525757 x_pred[0,9] + 0.0721777006983757 x_pred[0,10]
   - 0.1261023432016373 x_pred[0,11] - 0.0609158538281918 x_pred[0,12]
   + 0.0610715299844742 x_pred[0,13] - 0.1727971285581589 x_pred[0,14]
   - 0.0957005620002747 x_pred[0,15] - 0.0156712662428617 x_pred[0,16]
   - 0.0822372734546661 x_pred[0,17] - 0.00423314142972231 x_pred[0,18]
   - 0.1362567842006683 x_pred[0,19] - 0.0623446404933929 x_pred[0,20]
   + 0.0660792961716652 x_pred[0,21] - 0.1095873489975929 x_pred[0,22]
   + 0.2243869453668594 x_pred[0,23] - 0.00146622967440635 x_pred[0,24]
   - 0.015890596434474 x_pred[0,25] - 0.3440306186676025 x_pred[0,26]
   + 0.0318731181323528 x_pred[0,27] + 0.0906499698758125 x_pred[0,28]
   - 0.1225216388702393 x_pred[0,29] - 0.0255279149860144 x_pred[0,30]
   - 0.111635148525238 x_pred[0,31] - 0.0254971534013748 x_pred[0,32]
   - 0.0947007089853287 x_pred[0,33] - 0.0383149720728397 x_pred[0,34]
   + 0.0478519722819328 x_pred[0,35] + 0.1016595661640167 x_pred[0,36]
   + sequential.linear_0.act[0,13] = -0.1597146391868591
 sequential.linear_0.R120: - 0.0518309362232685 x_pred[0,0]
   + 0.1418605893850327 x_pred[0,1] + 0.2104884684085846 x_pred[0,2]
   - 0.00199266127310693 x_pred[0,3] + 0.1513379216194153 x_pred[0,4]
   - 0.1891279667615891 x_pred[0,5] - 0.1480185389518738 x_pred[0,6]
   + 0.1854633986949921 x_pred[0,7] + 0.0469435714185238 x_pred[0,8]
   + 0.0882080122828484 x_pred[0,9] + 0.1049707233905792 x_pred[0,10]
   + 0.1652497053146362 x_pred[0,11] - 0.1839748024940491 x_pred[0,12]
   + 3.8216763641685247e-04 x_pred[0,13] + 0.045669924467802 x_pred[0,14]
   + 0.1082118079066277 x_pred[0,15] + 0.0749591216444969 x_pred[0,16]
   - 0.2267132699489594 x_pred[0,17] + 0.0308228116482496 x_pred[0,18]
   - 0.1803758889436722 x_pred[0,19] - 0.0772590339183807 x_pred[0,20]
   + 0.0654665008187294 x_pred[0,21] + 0.0978657156229019 x_pred[0,22]
   - 0.1584762781858444 x_pred[0,23] + 0.0104976398870349 x_pred[0,24]
   - 0.1743388026952744 x_pred[0,25] + 0.1331921517848969 x_pred[0,26]
   - 0.019125884398818 x_pred[0,27] - 0.00785286258906126 x_pred[0,28]
   + 0.0299903657287359 x_pred[0,29] - 0.0712779611349106 x_pred[0,30]
   - 0.0518290251493454 x_pred[0,31] - 0.0268714502453804 x_pred[0,32]
   + 0.0394856370985508 x_pred[0,33] - 0.0165655072778463 x_pred[0,34]
   + 0.085207998752594 x_pred[0,35] + 0.0418205894529819 x_pred[0,36]
   + sequential.linear_0.act[0,14] = -0.2706761360168457
 sequential.linear_0.R121: 0.2383517026901245 x_pred[0,0]
   + 0.0740460678935051 x_pred[0,1] + 0.2198753207921982 x_pred[0,2]
   + 0.1134823933243752 x_pred[0,3] + 0.2043903023004532 x_pred[0,4]
   - 0.0520937107503414 x_pred[0,5] - 0.1601909399032593 x_pred[0,6]
   + 0.1497556120157242 x_pred[0,7] + 0.0220068227499723 x_pred[0,8]
   + 0.0522798150777817 x_pred[0,9] - 0.102088175714016 x_pred[0,10]
   + 0.1674845218658447 x_pred[0,11] - 0.0231457632035017 x_pred[0,12]
   - 0.0227865390479565 x_pred[0,13] + 0.0805801600217819 x_pred[0,14]
   + 0.0750901848077774 x_pred[0,15] - 0.0387976281344891 x_pred[0,16]
   - 0.0899461582303047 x_pred[0,17] + 0.0688468813896179 x_pred[0,18]
   + 0.0488308444619179 x_pred[0,19] - 0.1071529015898705 x_pred[0,20]
   + 0.1506735384464264 x_pred[0,21] + 0.0163404177874327 x_pred[0,22]
   - 0.1342203319072723 x_pred[0,23] + 0.0745954737067223 x_pred[0,24]
   + 0.0493767447769642 x_pred[0,25] - 0.0515465028584003 x_pred[0,26]
   + 0.0274749398231506 x_pred[0,27] + 0.0748793631792068 x_pred[0,28]
   - 0.2384791076183319 x_pred[0,29] + 0.0474756844341755 x_pred[0,30]
   + 0.1088100001215935 x_pred[0,31] - 0.0351021811366081 x_pred[0,32]
   + 0.1566155403852463 x_pred[0,33] - 0.0729070901870728 x_pred[0,34]
   - 0.00750352302566171 x_pred[0,35] - 0.1134073287248611 x_pred[0,36]
   + sequential.linear_0.act[0,15] = -0.0681830123066902
 sequential.linear_0.R122: - 0.153873085975647 x_pred[0,0]
   - 0.1259523928165436 x_pred[0,1] + 0.3673829138278961 x_pred[0,2]
   - 0.5473453998565674 x_pred[0,3] - 0.0467431247234344 x_pred[0,4]
   - 0.0203969851136208 x_pred[0,5] - 0.1129557490348816 x_pred[0,6]
   - 0.1370726525783539 x_pred[0,7] + 0.0119192032143474 x_pred[0,8]
   + 0.1196258813142776 x_pred[0,9] + 0.0892525985836983 x_pred[0,10]
   - 0.0224365014582872 x_pred[0,11] - 0.1128413081169128 x_pred[0,12]
   - 0.153448611497879 x_pred[0,13] + 0.1060827970504761 x_pred[0,14]
   + 0.0207499247044325 x_pred[0,15] + 0.1590538620948792 x_pred[0,16]
   + 0.00594733562320471 x_pred[0,17] + 0.00842414889484644 x_pred[0,18]
   + 0.00893748085945845 x_pred[0,19] - 0.0539470799267292 x_pred[0,20]
   - 0.102757602930069 x_pred[0,21] - 0.0725130662322044 x_pred[0,22]
   + 0.0840184688568115 x_pred[0,23] + 0.0420444458723068 x_pred[0,24]
   - 0.016877057030797 x_pred[0,25] - 0.2826428413391113 x_pred[0,26]
   + 0.1000518947839737 x_pred[0,27] + 0.0288558360189199 x_pred[0,28]
   + 0.0311313457787037 x_pred[0,29] - 0.158771276473999 x_pred[0,30]
   - 0.014278681948781 x_pred[0,31] + 0.1251823753118515 x_pred[0,32]
   - 0.1497134417295456 x_pred[0,33] - 0.1731861084699631 x_pred[0,34]
   + 0.0437731929123402 x_pred[0,35] + 0.125256136059761 x_pred[0,36]
   + sequential.linear_0.act[0,16] = 0.2045646160840988
 sequential.linear_0.R123: - 0.023804722353816 x_pred[0,0]
   - 0.055144727230072 x_pred[0,1] - 0.00123907660599798 x_pred[0,2]
   + 0.0182730592787266 x_pred[0,3] + 0.2403105050325394 x_pred[0,4]
   - 0.0424220263957977 x_pred[0,5] - 0.0657464638352394 x_pred[0,6]
   + 0.0896097123622894 x_pred[0,7] + 0.0772496685385704 x_pred[0,8]
   - 0.3060369491577148 x_pred[0,9] - 0.1430331170558929 x_pred[0,10]
   - 0.00755751132965088 x_pred[0,11] + 0.0326445214450359 x_pred[0,12]
   - 0.2830415368080139 x_pred[0,13] + 0.2862318754196167 x_pred[0,14]
   + 0.085906945168972 x_pred[0,15] - 0.1314461380243301 x_pred[0,16]
   + 0.0388676300644875 x_pred[0,17] - 7.8351e-05 x_pred[0,18]
   + 0.0569210536777973 x_pred[0,19] - 0.0202859789133072 x_pred[0,20]
   - 2.541074063628912e-04 x_pred[0,21] - 0.0924391373991966 x_pred[0,22]
   + 0.1786312311887741 x_pred[0,23] + 0.1575676649808884 x_pred[0,24]
   + 0.0065508452244103 x_pred[0,25] - 0.184415727853775 x_pred[0,26]
   + 0.1035965606570244 x_pred[0,27] - 0.1061674132943153 x_pred[0,28]
   - 0.1758498847484589 x_pred[0,29] - 0.0590974874794483 x_pred[0,30]
   + 0.1443139612674713 x_pred[0,31] - 0.0226825680583715 x_pred[0,32]
   - 0.0195189919322729 x_pred[0,33] - 0.0549266971647739 x_pred[0,34]
   - 0.1681908518075943 x_pred[0,35] + 0.0212158393114805 x_pred[0,36]
   + sequential.linear_0.act[0,17] = -0.3081860542297363
 sequential.linear_0.R124: 0.366994708776474 x_pred[0,0]
   + 0.1336187869310379 x_pred[0,1] + 0.0195738263428211 x_pred[0,2]
   + 0.1700512021780014 x_pred[0,3] + 0.0849417820572853 x_pred[0,4]
   - 0.0853156819939613 x_pred[0,5] + 0.1021076962351799 x_pred[0,6]
   - 0.00152564770542085 x_pred[0,7] + 0.1161315962672234 x_pred[0,8]
   - 0.1330970972776413 x_pred[0,9] - 0.1352057307958603 x_pred[0,10]
   + 0.0707159787416458 x_pred[0,11] - 0.0499589890241623 x_pred[0,12]
   + 0.037140890955925 x_pred[0,13] - 0.0435211956501007 x_pred[0,14]
   - 0.00642109708860517 x_pred[0,15] - 0.0873688608407974 x_pred[0,16]
   - 0.0295387376099825 x_pred[0,17] + 0.0237127151340246 x_pred[0,18]
   + 0.0229261517524719 x_pred[0,19] - 0.0349452011287212 x_pred[0,20]
   - 0.0705328360199928 x_pred[0,21] + 0.00801441725343466 x_pred[0,22]
   - 0.0808247774839401 x_pred[0,23] - 0.1127903386950493 x_pred[0,24]
   - 0.1684947460889816 x_pred[0,25] - 0.0413833446800709 x_pred[0,26]
   - 0.030944412574172 x_pred[0,27] + 0.0607878677546978 x_pred[0,28]
   + 0.1499533653259277 x_pred[0,29] + 0.1719045639038086 x_pred[0,30]
   - 0.1073837801814079 x_pred[0,31] - 0.1969026923179626 x_pred[0,32]
   - 0.0751014053821564 x_pred[0,33] + 0.0832804217934608 x_pred[0,34]
   - 0.0163368713110685 x_pred[0,35] - 0.1835073232650757 x_pred[0,36]
   + sequential.linear_0.act[0,18] = -0.2024251520633698
 sequential.linear_0.R125: 0.0443235225975513 x_pred[0,0]
   + 0.0551322661340237 x_pred[0,1] + 0.164956346154213 x_pred[0,2]
   + 0.0471895076334476 x_pred[0,3] + 0.0367990434169769 x_pred[0,4]
   + 0.0826159566640854 x_pred[0,5] + 0.1366326659917831 x_pred[0,6]
   + 0.1325036436319351 x_pred[0,7] + 0.0145075581967831 x_pred[0,8]
   - 0.0611147284507751 x_pred[0,9] - 0.0436703227460384 x_pred[0,10]
   + 0.1131352111697197 x_pred[0,11] + 0.2208317369222641 x_pred[0,12]
   + 0.0911687389016151 x_pred[0,13] - 0.0502637512981892 x_pred[0,14]
   - 0.0744821727275848 x_pred[0,15] - 0.1746299415826797 x_pred[0,16]
   - 0.0938316285610199 x_pred[0,17] - 0.0209566596895456 x_pred[0,18]
   - 0.1137623265385628 x_pred[0,19] + 0.0918381959199905 x_pred[0,20]
   - 0.00805691629648209 x_pred[0,21] + 0.1577181667089462 x_pred[0,22]
   - 0.1311598271131516 x_pred[0,23] + 0.095090277493 x_pred[0,24]
   + 0.0592971555888653 x_pred[0,25] - 0.1868239790201187 x_pred[0,26]
   + 0.0498719364404678 x_pred[0,27] - 0.0500059202313423 x_pred[0,28]
   - 0.0827646180987358 x_pred[0,29] + 0.0158529840409756 x_pred[0,30]
   + 0.0834719315171242 x_pred[0,31] - 5.2182411309331656e-04 x_pred[0,32]
   + 0.0159293599426746 x_pred[0,33] - 0.117925651371479 x_pred[0,34]
   + 0.0307503715157509 x_pred[0,35] + 0.00875976029783487 x_pred[0,36]
   + sequential.linear_0.act[0,19] = -0.1276435703039169
 sequential.linear_0.R126: 0.1269793808460236 x_pred[0,0]
   + 0.1607723534107208 x_pred[0,1] + 0.1866833120584488 x_pred[0,2]
   + 0.0373129434883595 x_pred[0,3] + 0.1130559593439102 x_pred[0,4]
   - 0.0107543263584375 x_pred[0,5] + 0.048794362694025 x_pred[0,6]
   + 0.1420910507440567 x_pred[0,7] + 0.1498628258705139 x_pred[0,8]
   + 0.0255009271204472 x_pred[0,9] - 0.0807496458292007 x_pred[0,10]
   - 0.0704218596220016 x_pred[0,11] + 0.0600882843136787 x_pred[0,12]
   + 0.1018130779266357 x_pred[0,13] - 0.1237384378910065 x_pred[0,14]
   + 0.0869396030902863 x_pred[0,15] - 0.1612439453601837 x_pred[0,16]
   + 0.0253299959003925 x_pred[0,17] + 0.0265521835535765 x_pred[0,18]
   + 0.0636022388935089 x_pred[0,19] - 0.0856177657842636 x_pred[0,20]
   + 0.1536982357501984 x_pred[0,21] + 0.1131087467074394 x_pred[0,22]
   - 0.098710261285305 x_pred[0,23] - 0.0149691263213754 x_pred[0,24]
   + 0.0682484433054924 x_pred[0,25] + 0.2048550993204117 x_pred[0,26]
   + 0.1002573817968369 x_pred[0,27] - 0.0534452311694622 x_pred[0,28]
   + 0.0792609080672264 x_pred[0,29] - 0.0454020835459232 x_pred[0,30]
   - 0.0657409802079201 x_pred[0,31] - 0.0753029435873032 x_pred[0,32]
   - 0.035481296479702 x_pred[0,33] - 0.0629022046923637 x_pred[0,34]
   + 0.0918254405260086 x_pred[0,35] - 0.1040720045566559 x_pred[0,36]
   + sequential.linear_0.act[0,20] = -0.00369733129628003
 sequential.linear_0.R127: 0.1496044993400574 x_pred[0,0]
   + 0.0720288455486298 x_pred[0,1] + 0.2443371713161469 x_pred[0,2]
   + 0.00203796080313623 x_pred[0,3] + 0.3374221622943878 x_pred[0,4]
   - 0.074983648955822 x_pred[0,5] + 0.0772538408637047 x_pred[0,6]
   - 0.1711632162332535 x_pred[0,7] - 0.1253777146339417 x_pred[0,8]
   - 0.0548918172717094 x_pred[0,9] + 0.0158128086477518 x_pred[0,10]
   + 0.0330910049378872 x_pred[0,11] - 0.0910022780299187 x_pred[0,12]
   + 0.1247100383043289 x_pred[0,13] - 0.0745609104633331 x_pred[0,14]
   + 0.152510017156601 x_pred[0,15] - 0.1048303842544556 x_pred[0,16]
   - 0.0495892614126205 x_pred[0,17] + 0.0448755770921707 x_pred[0,18]
   + 0.1556045711040497 x_pred[0,19] - 0.1177057102322578 x_pred[0,20]
   + 0.0534403473138809 x_pred[0,21] + 0.1065315157175064 x_pred[0,22]
   + 0.1749351024627686 x_pred[0,23] + 0.0422091 x_pred[0,24]
   + 0.1313003897666931 x_pred[0,25] - 0.053356196731329 x_pred[0,26]
   - 0.0835464224219322 x_pred[0,27] + 0.1274773776531219 x_pred[0,28]
   - 0.0569128692150116 x_pred[0,29] + 0.0919265002012253 x_pred[0,30]
   + 0.0998300835490227 x_pred[0,31] + 0.1500585079193115 x_pred[0,32]
   - 0.0174638517200947 x_pred[0,33] + 0.0955565646290779 x_pred[0,34]
   - 0.1162822395563126 x_pred[0,35] + 0.0337187722325325 x_pred[0,36]
   + sequential.linear_0.act[0,21] = 0.0981837958097458
 sequential.linear_0.R128: 0.121806763112545 x_pred[0,0]
   + 0.0458648018538952 x_pred[0,1] - 0.0455434657633305 x_pred[0,2]
   - 0.4892504811286926 x_pred[0,3] - 0.5580691695213318 x_pred[0,4]
   + 0.00421022297814488 x_pred[0,5] - 0.0759840086102486 x_pred[0,6]
   - 0.0454827584326267 x_pred[0,7] - 0.0173185523599386 x_pred[0,8]
   + 0.1072196513414383 x_pred[0,9] - 0.1062209382653236 x_pred[0,10]
   - 0.0167427472770214 x_pred[0,11] + 0.1216928660869598 x_pred[0,12]
   + 0.0183443389832973 x_pred[0,13] - 0.065672479569912 x_pred[0,14]
   + 0.0117441797628999 x_pred[0,15] - 0.1595298200845718 x_pred[0,16]
   - 0.0347680523991585 x_pred[0,17] - 0.0923823788762093 x_pred[0,18]
   - 0.1157712340354919 x_pred[0,19] + 0.0261867512017488 x_pred[0,20]
   + 0.0951362475752831 x_pred[0,21] + 0.0212234482169151 x_pred[0,22]
   + 0.0461651496589184 x_pred[0,23] - 0.1328298300504684 x_pred[0,24]
   - 0.0818460583686829 x_pred[0,25] - 0.3059455752372742 x_pred[0,26]
   - 0.1201866567134857 x_pred[0,27] + 0.1548963636159897 x_pred[0,28]
   - 0.078863188624382 x_pred[0,29] + 0.1641432791948318 x_pred[0,30]
   + 0.0516194440424442 x_pred[0,31] - 0.0623445399105549 x_pred[0,32]
   - 0.1697405874729156 x_pred[0,33] - 0.0317532531917095 x_pred[0,34]
   - 0.00741409650072455 x_pred[0,35] + 0.0486922189593315 x_pred[0,36]
   + sequential.linear_0.act[0,22] = -0.2107052356004715
 sequential.linear_0.R129: 0.1863777339458466 x_pred[0,0]
   + 0.5784351229667664 x_pred[0,1] + 0.1029182896018028 x_pred[0,2]
   - 2.639404296875 x_pred[0,3] - 3.660310983657837 x_pred[0,4]
   + 0.00648902356624603 x_pred[0,5] - 0.00878077745437622 x_pred[0,6]
   + 0.0204768050462008 x_pred[0,7] + 0.0149980867281556 x_pred[0,8]
   - 0.0165063198655844 x_pred[0,9] - 0.020857710391283 x_pred[0,10]
   - 0.0278015304356813 x_pred[0,11] - 0.0619345679879189 x_pred[0,12]
   - 0.00358612602576613 x_pred[0,13] + 0.00811073742806911 x_pred[0,14]
   + 0.0435691364109516 x_pred[0,15] - 0.0651922300457954 x_pred[0,16]
   - 0.0203986559063196 x_pred[0,17] - 0.013856808654964 x_pred[0,18]
   - 0.0100055476650596 x_pred[0,19] + 0.00138630450237542 x_pred[0,20]
   + 0.0369715318083763 x_pred[0,21] - 0.0229296553879976 x_pred[0,22]
   + 0.00219552614726126 x_pred[0,23] - 0.0540640167891979 x_pred[0,24]
   - 4.6861643204465508e-04 x_pred[0,25] - 0.1165649518370628 x_pred[0,26]
   - 0.00734892394393682 x_pred[0,27] - 0.00902814324945211 x_pred[0,28]
   + 0.0367972776293755 x_pred[0,29] + 0.0382747165858746 x_pred[0,30]
   + 0.0247561726719141 x_pred[0,31] - 0.0624698027968407 x_pred[0,32]
   - 0.0225468520075083 x_pred[0,33] - 0.0474210791289806 x_pred[0,34]
   + 0.037850633263588 x_pred[0,35] - 0.00897586718201637 x_pred[0,36]
   + sequential.linear_0.act[0,23] = -0.3846419453620911
 sequential.linear_0.R130: 0.1717898845672607 x_pred[0,0]
   + 0.0856655836105347 x_pred[0,1] + 0.066630594432354 x_pred[0,2]
   + 0.0578653961420059 x_pred[0,3] + 0.0900456011295319 x_pred[0,4]
   - 0.1569283604621887 x_pred[0,5] - 0.0877887457609177 x_pred[0,6]
   + 0.0106595298275352 x_pred[0,7] + 0.1315632462501526 x_pred[0,8]
   - 0.1419938057661057 x_pred[0,9] - 0.0234351828694344 x_pred[0,10]
   + 0.1417789161205292 x_pred[0,11] + 0.0595375671982765 x_pred[0,12]
   - 0.0246625281870365 x_pred[0,13] - 0.08811866492033 x_pred[0,14]
   + 0.0201689228415489 x_pred[0,15] - 0.1304132789373398 x_pred[0,16]
   - 0.1315651535987854 x_pred[0,17] - 0.1510309129953384 x_pred[0,18]
   - 0.06716538220644 x_pred[0,19] + 0.1216668784618378 x_pred[0,20]
   - 0.0872069224715233 x_pred[0,21] - 0.043647974729538 x_pred[0,22]
   - 0.1307603418827057 x_pred[0,23] + 0.0947941467165947 x_pred[0,24]
   - 0.1077375113964081 x_pred[0,25] + 0.057049535214901 x_pred[0,26]
   - 0.0785598382353783 x_pred[0,27] - 0.1126406565308571 x_pred[0,28]
   + 0.0377761088311672 x_pred[0,29] + 0.1043693274259567 x_pred[0,30]
   + 0.0921718031167984 x_pred[0,31] - 0.1323919147253036 x_pred[0,32]
   + 0.1174454167485237 x_pred[0,33] + 0.0579331107437611 x_pred[0,34]
   + 0.1001301780343056 x_pred[0,35] - 0.0120951877906919 x_pred[0,36]
   + sequential.linear_0.act[0,24] = -0.1139468997716904
 sequential.linear_0.R131: 0.1614183187484741 x_pred[0,0]
   + 0.0544926337897778 x_pred[0,1] - 0.0489406697452068 x_pred[0,2]
   - 0.0804229453206062 x_pred[0,3] - 0.0832768529653549 x_pred[0,4]
   + 0.0983168333768845 x_pred[0,5] + 0.000733168 x_pred[0,6]
   - 0.00158327317330986 x_pred[0,7] + 0.0796126648783684 x_pred[0,8]
   - 0.0259175766259432 x_pred[0,9] - 0.0521342605352402 x_pred[0,10]
   - 0.0839435607194901 x_pred[0,11] - 0.0483277067542076 x_pred[0,12]
   - 0.0269252806901932 x_pred[0,13] - 0.1597671955823898 x_pred[0,14]
   - 0.073106586933136 x_pred[0,15] - 0.0239911917597055 x_pred[0,16]
   - 0.0307948105037212 x_pred[0,17] + 0.0279048159718513 x_pred[0,18]
   - 0.052903451025486 x_pred[0,19] + 0.0430612005293369 x_pred[0,20]
   + 0.1651121079921722 x_pred[0,21] - 0.0436200350522995 x_pred[0,22]
   + 0.0758015513420105 x_pred[0,23] - 0.0822435542941093 x_pred[0,24]
   - 0.0993453338742256 x_pred[0,25] + 0.00865031871944666 x_pred[0,26]
   - 0.0318282023072243 x_pred[0,27] + 0.1324739754199982 x_pred[0,28]
   + 0.0286372750997543 x_pred[0,29] + 0.09860510379076 x_pred[0,30]
   + 0.0286163557320833 x_pred[0,31] - 0.0889120250940323 x_pred[0,32]
   - 0.1181850358843803 x_pred[0,33] + 0.0439892821013927 x_pred[0,34]
   - 0.064712792634964 x_pred[0,35] - 0.1613864302635193 x_pred[0,36]
   + sequential.linear_0.act[0,25] = -0.2037689685821533
 sequential.linear_0.R132: 0.1301825493574142 x_pred[0,0]
   + 0.0747460424900055 x_pred[0,1] - 0.359748363494873 x_pred[0,2]
   + 1.258378148078918 x_pred[0,3] + 1.971099138259888 x_pred[0,4]
   - 0.10258799046278 x_pred[0,5] + 0.0115560488775373 x_pred[0,6]
   - 0.0464465357363224 x_pred[0,7] + 0.0626722276210785 x_pred[0,8]
   + 0.1725036948919296 x_pred[0,9] - 0.0540289394557476 x_pred[0,10]
   - 0.0153507152572274 x_pred[0,11] - 0.0865471139550209 x_pred[0,12]
   + 0.1979085654020309 x_pred[0,13] + 0.0840922445058823 x_pred[0,14]
   + 0.0144198751077056 x_pred[0,15] + 0.0498837828636169 x_pred[0,16]
   - 0.0308607704937458 x_pred[0,17] + 0.0685973465442657 x_pred[0,18]
   - 0.0302345659583807 x_pred[0,19] - 0.0204685740172863 x_pred[0,20]
   + 0.068140983581543 x_pred[0,21] + 0.0618818178772926 x_pred[0,22]
   - 0.1264642179012299 x_pred[0,23] + 0.0338423848152161 x_pred[0,24]
   - 0.1152095943689346 x_pred[0,25] - 0.4333411455154419 x_pred[0,26]
   + 0.2806684970855713 x_pred[0,27] + 0.318197637796402 x_pred[0,28]
   + 0.2159294486045837 x_pred[0,29] + 0.0536797270178795 x_pred[0,30]
   - 0.0249773915857077 x_pred[0,31] - 0.1388970911502838 x_pred[0,32]
   - 0.1422081291675568 x_pred[0,33] + 0.2581603229045868 x_pred[0,34]
   + 0.2662450671195984 x_pred[0,35] - 0.0300382617861032 x_pred[0,36]
   + sequential.linear_0.act[0,26] = -0.1129545792937279
 sequential.linear_0.R133: 0.143667608499527 x_pred[0,0]
   + 0.108709380030632 x_pred[0,1] - 0.577176570892334 x_pred[0,2]
   + 1.779571652412415 x_pred[0,3] + 2.844842910766602 x_pred[0,4]
   - 9.6364261116832495e-04 x_pred[0,5] - 0.0511276572942734 x_pred[0,6]
   + 0.0245853196829557 x_pred[0,7] - 0.0335181094706059 x_pred[0,8]
   - 0.0198966171592474 x_pred[0,9] + 0.0857501477003098 x_pred[0,10]
   - 0.0337786860764027 x_pred[0,11] + 0.000308979 x_pred[0,12]
   + 0.0846873372793198 x_pred[0,13] - 0.025545010343194 x_pred[0,14]
   + 0.0377370677888393 x_pred[0,15] - 0.125206470489502 x_pred[0,16]
   - 0.028365096077323 x_pred[0,17] - 0.0112625947222114 x_pred[0,18]
   - 0.0697828754782677 x_pred[0,19] + 0.00410504126921296 x_pred[0,20]
   - 0.0191502906382084 x_pred[0,21] + 0.0151745472103357 x_pred[0,22]
   - 0.00510729663074017 x_pred[0,23] - 0.0187036599963903 x_pred[0,24]
   - 0.0126015841960907 x_pred[0,25] - 0.2535689473152161 x_pred[0,26]
   + 0.0817534402012825 x_pred[0,27] + 0.1201257482171059 x_pred[0,28]
   + 0.0363500118255615 x_pred[0,29] + 0.0252357982099056 x_pred[0,30]
   - 0.0444130562245846 x_pred[0,31] - 0.0432151667773724 x_pred[0,32]
   + 0.0561323389410973 x_pred[0,33] + 0.014357409439981 x_pred[0,34]
   + 0.0245433524250984 x_pred[0,35] + 0.0050602019764483 x_pred[0,36]
   + sequential.linear_0.act[0,27] = -0.0293350722640753
 sequential.linear_0.R134: 0.0285526271909475 x_pred[0,0]
   - 0.0143376942723989 x_pred[0,1] - 0.0122855678200722 x_pred[0,2]
   + 0.2875635623931885 x_pred[0,3] + 0.2339122742414474 x_pred[0,4]
   - 0.1859095692634583 x_pred[0,5] - 0.0019381504971534 x_pred[0,6]
   + 0.1626774221658707 x_pred[0,7] + 0.00571910804137588 x_pred[0,8]
   + 0.2215430289506912 x_pred[0,9] + 0.1523762494325638 x_pred[0,10]
   + 0.0704910084605217 x_pred[0,11] - 0.1222578585147858 x_pred[0,12]
   + 0.1582062691450119 x_pred[0,13] - 0.0353563167154789 x_pred[0,14]
   - 0.0332773365080357 x_pred[0,15] - 0.2557502090930939 x_pred[0,16]
   - 0.1174073815345764 x_pred[0,17] - 0.1205888688564301 x_pred[0,18]
   + 0.1049409881234169 x_pred[0,19] - 0.1830761581659317 x_pred[0,20]
   - 0.0612934194505215 x_pred[0,21] + 0.1128858998417854 x_pred[0,22]
   - 0.0283220894634724 x_pred[0,23] - 0.1006525829434395 x_pred[0,24]
   - 0.2491852939128876 x_pred[0,25] - 0.0612728111445904 x_pred[0,26]
   + 0.0361325591802597 x_pred[0,27] + 0.2521624863147736 x_pred[0,28]
   + 0.1401472985744476 x_pred[0,29] - 0.113478921353817 x_pred[0,30]
   + 0.0861756652593613 x_pred[0,31] - 0.0317244566977024 x_pred[0,32]
   - 0.0916139632463455 x_pred[0,33] - 0.1446594446897507 x_pred[0,34]
   + 0.00686609698459506 x_pred[0,35] - 0.0396492294967175 x_pred[0,36]
   + sequential.linear_0.act[0,28] = -0.1270049959421158
 sequential.linear_0.R135: 0.0520297363400459 x_pred[0,0]
   + 0.1183889731764793 x_pred[0,1] - 0.0148236947134137 x_pred[0,2]
   - 0.1497374176979065 x_pred[0,3] + 0.0279491078108549 x_pred[0,4]
   - 0.2479732781648636 x_pred[0,5] - 0.00581412715837359 x_pred[0,6]
   - 0.0469447858631611 x_pred[0,7] + 0.0926129594445229 x_pred[0,8]
   - 0.0956500992178917 x_pred[0,9] + 0.1769358664751053 x_pred[0,10]
   + 0.2922421097755432 x_pred[0,11] - 0.1370718777179718 x_pred[0,12]
   + 0.037250243127346 x_pred[0,13] - 0.2867948710918427 x_pred[0,14]
   + 0.0699066668748856 x_pred[0,15] + 0.1734009832143784 x_pred[0,16]
   - 0.035888247191906 x_pred[0,17] - 0.1245714500546455 x_pred[0,18]
   + 0.00468429224565625 x_pred[0,19] - 0.3173681199550629 x_pred[0,20]
   - 0.0925409495830536 x_pred[0,21] - 0.2663024663925171 x_pred[0,22]
   + 0.053326316177845 x_pred[0,23] - 0.0736453831195831 x_pred[0,24]
   - 0.3066446781158447 x_pred[0,25] - 0.1234511807560921 x_pred[0,26]
   + 0.0257579870522022 x_pred[0,27] + 0.2516472637653351 x_pred[0,28]
   + 0.0606784410774708 x_pred[0,29] + 0.2319139689207077 x_pred[0,30]
   + 0.0801257193088531 x_pred[0,31] - 0.0314803421497345 x_pred[0,32]
   + 0.0520978718996048 x_pred[0,33] + 0.0780519023537636 x_pred[0,34]
   + 0.00616082 x_pred[0,35] + 0.2753784358501434 x_pred[0,36]
   + sequential.linear_0.act[0,29] = -0.1321980208158493
 sequential.linear_0.R136: 0.1016412973403931 x_pred[0,0]
   + 0.1097281128168106 x_pred[0,1] + 0.00579383177682757 x_pred[0,2]
   + 0.2397492378950119 x_pred[0,3] + 0.1885965019464493 x_pred[0,4]
   + 0.038512110710144 x_pred[0,5] + 0.0170836113393307 x_pred[0,6]
   - 0.1098364666104317 x_pred[0,7] - 9.9976116325706244e-04 x_pred[0,8]
   + 0.0377160087227821 x_pred[0,9] + 0.2474161982536316 x_pred[0,10]
   + 0.058831725269556 x_pred[0,11] + 0.1418668478727341 x_pred[0,12]
   + 0.0457499586045742 x_pred[0,13] + 0.00789471715688705 x_pred[0,14]
   + 0.0651285275816917 x_pred[0,15] + 0.0641111060976982 x_pred[0,16]
   + 0.1509031057357788 x_pred[0,17] + 0.2502215504646301 x_pred[0,18]
   + 0.175027996301651 x_pred[0,19] - 0.0554678961634636 x_pred[0,20]
   - 0.2313069254159927 x_pred[0,21] + 0.0296265352517366 x_pred[0,22]
   + 0.1440256983041763 x_pred[0,23] + 0.1697332412004471 x_pred[0,24]
   - 0.1479977071285248 x_pred[0,25] - 0.0778003707528114 x_pred[0,26]
   - 0.2423468381166458 x_pred[0,27] - 0.0634988993406296 x_pred[0,28]
   + 0.0610373541712761 x_pred[0,29] + 0.0667310804128647 x_pred[0,30]
   - 0.0720897689461708 x_pred[0,31] + 0.0129692777991295 x_pred[0,32]
   - 0.0603069476783276 x_pred[0,33] - 0.1257126182317734 x_pred[0,34]
   - 0.00349017046391964 x_pred[0,35] - 0.2159160524606705 x_pred[0,36]
   + sequential.linear_0.act[0,30] = -0.190717339515686
 sequential.linear_0.R137: 0.0436912216246128 x_pred[0,0]
   - 0.041968647390604 x_pred[0,1] + 0.0665165930986404 x_pred[0,2]
   - 0.0649906694889069 x_pred[0,3] + 0.1789857447147369 x_pred[0,4]
   - 0.2076687961816788 x_pred[0,5] - 0.0923251509666443 x_pred[0,6]
   - 0.1451222449541092 x_pred[0,7] - 0.1328974515199661 x_pred[0,8]
   + 0.1304693073034286 x_pred[0,9] + 0.1482299119234085 x_pred[0,10]
   + 0.3455438911914825 x_pred[0,11] - 0.0398586839437485 x_pred[0,12]
   + 0.1055397614836693 x_pred[0,13] - 0.2570085823535919 x_pred[0,14]
   - 0.0775736197829247 x_pred[0,15] - 0.114536315202713 x_pred[0,16]
   - 0.1219584494829178 x_pred[0,17] - 0.1685598641633987 x_pred[0,18]
   + 0.2247642576694489 x_pred[0,19] - 0.1017246097326279 x_pred[0,20]
   - 0.112112820148468 x_pred[0,21] - 0.0800826177000999 x_pred[0,22]
   - 0.0708637908101082 x_pred[0,23] + 0.2310397177934647 x_pred[0,24]
   - 0.1515641212463379 x_pred[0,25] + 0.0419960543513298 x_pred[0,26]
   - 0.070035807788372 x_pred[0,27] + 0.0844616964459419 x_pred[0,28]
   + 0.0784652307629585 x_pred[0,29] + 0.1634123474359512 x_pred[0,30]
   + 0.1591645926237106 x_pred[0,31] - 0.086686298251152 x_pred[0,32]
   + 0.0842741653323174 x_pred[0,33] - 0.1760628074407578 x_pred[0,34]
   + 0.0439373664557934 x_pred[0,35] + 0.0328092984855175 x_pred[0,36]
   + sequential.linear_0.act[0,31] = -0.1023991107940674
 sequential.linear_0.R138: 0.1748703420162201 x_pred[0,0]
   + 0.7938550114631653 x_pred[0,1] + 0.1706898659467697 x_pred[0,2]
   - 2.605311155319214 x_pred[0,3] - 4.514608860015869 x_pred[0,4]
   - 0.0141087621450424 x_pred[0,5] + 0.00924771465361118 x_pred[0,6]
   - 0.0308866687119007 x_pred[0,7] - 0.0116581181064248 x_pred[0,8]
   + 0.03325130417943 x_pred[0,9] + 0.0193712301552296 x_pred[0,10]
   + 0.00462111318483949 x_pred[0,11] + 0.0258820205926895 x_pred[0,12]
   + 0.0259691439568996 x_pred[0,13] + 0.00704274419695139 x_pred[0,14]
   - 0.0397186689078808 x_pred[0,15] - 0.0144027750939131 x_pred[0,16]
   + 0.0227724723517895 x_pred[0,17] + 0.0171696878969669 x_pred[0,18]
   - 0.0024011495988816 x_pred[0,19] - 0.0152713153511286 x_pred[0,20]
   - 0.0149483559653163 x_pred[0,21] + 0.0337579138576984 x_pred[0,22]
   + 0.00420713936910033 x_pred[0,23] + 0.0331488512456417 x_pred[0,24]
   - 0.0250298362225294 x_pred[0,25] - 0.0513826310634613 x_pred[0,26]
   + 0.0286809150129557 x_pred[0,27] + 0.0359092280268669 x_pred[0,28]
   - 0.00587178766727448 x_pred[0,29] - 0.0162661131471395 x_pred[0,30]
   - 0.00257336441427469 x_pred[0,31] + 0.0219980217516422 x_pred[0,32]
   - 0.00696552265435457 x_pred[0,33] + 0.0448076389729977 x_pred[0,34]
   - 0.00859360862523317 x_pred[0,35] - 0.0193465147167444 x_pred[0,36]
   + sequential.linear_0.act[0,32] = -0.3559010326862335
 sequential.linear_0.R139: 0.284015417098999 x_pred[0,0]
   + 0.1142578795552254 x_pred[0,1] + 0.2500997185707092 x_pred[0,2]
   + 5.1566580077633262e-04 x_pred[0,3] + 0.0950482562184334 x_pred[0,4]
   - 0.0615419447422028 x_pred[0,5] - 0.1674373000860214 x_pred[0,6]
   + 0.1568282693624496 x_pred[0,7] - 0.0515748560428619 x_pred[0,8]
   - 0.119763545691967 x_pred[0,9] + 0.0936349779367447 x_pred[0,10]
   + 0.2200275510549545 x_pred[0,11] + 0.0955385863780975 x_pred[0,12]
   + 0.0467539839446545 x_pred[0,13] - 0.1552881896495819 x_pred[0,14]
   + 0.0714332908391953 x_pred[0,15] - 0.2754037976264954 x_pred[0,16]
   - 0.1056772321462631 x_pred[0,17] + 0.0819093436002731 x_pred[0,18]
   - 0.0751673206686974 x_pred[0,19] - 0.0274749435484409 x_pred[0,20]
   + 0.0221485979855061 x_pred[0,21] + 0.1461725234985352 x_pred[0,22]
   + 0.030538983643055 x_pred[0,23] + 0.0844171494245529 x_pred[0,24]
   - 0.1661184579133987 x_pred[0,25] + 0.1399763971567154 x_pred[0,26]
   + 0.1376240104436874 x_pred[0,27] - 0.0679463148117065 x_pred[0,28]
   + 0.0127227678894997 x_pred[0,29] + 0.0526002012193203 x_pred[0,30]
   + 0.00414752913638949 x_pred[0,31] - 0.0884829461574554 x_pred[0,32]
   + 0.00363670941442251 x_pred[0,33] - 0.1660885661840439 x_pred[0,34]
   + 0.1088427603244781 x_pred[0,35] + 0.0160367898643017 x_pred[0,36]
   + sequential.linear_0.act[0,33] = -0.00517734279856086
 sequential.linear_0.R140: 0.0208739582449198 x_pred[0,0]
   + 0.0978177636861801 x_pred[0,1] + 0.0808629468083382 x_pred[0,2]
   + 0.1110989451408386 x_pred[0,3] - 0.0420956648886204 x_pred[0,4]
   + 0.1148408949375153 x_pred[0,5] - 0.1059506759047508 x_pred[0,6]
   - 0.0461748093366623 x_pred[0,7] - 0.1336457878351212 x_pred[0,8]
   - 0.1263072937726974 x_pred[0,9] + 0.1143670380115509 x_pred[0,10]
   + 0.049482274800539 x_pred[0,11] - 0.1280487924814224 x_pred[0,12]
   + 0.0947712287306786 x_pred[0,13] + 0.0285176150500774 x_pred[0,14]
   - 0.0624757707118988 x_pred[0,15] + 0.0849491357803345 x_pred[0,16]
   + 0.1054922863841057 x_pred[0,17] - 0.1130848675966263 x_pred[0,18]
   - 0.012593231163919 x_pred[0,19] - 0.0477895513176918 x_pred[0,20]
   + 0.0449256673455238 x_pred[0,21] - 0.1228472366929054 x_pred[0,22]
   + 0.0927827283740044 x_pred[0,23] - 0.1050835102796555 x_pred[0,24]
   - 0.00681178038939834 x_pred[0,25] - 0.053992971777916 x_pred[0,26]
   + 0.033735603094101 x_pred[0,27] - 0.0915748551487923 x_pred[0,28]
   + 0.0955983549356461 x_pred[0,29] - 0.0731242448091507 x_pred[0,30]
   - 0.143571138381958 x_pred[0,31] - 0.058776218444109 x_pred[0,32]
   + 0.0611172020435333 x_pred[0,33] - 0.0480046011507511 x_pred[0,34]
   - 0.0583427920937538 x_pred[0,35] - 0.0669948905706406 x_pred[0,36]
   + sequential.linear_0.act[0,34] = -0.0293170679360628
 sequential.linear_0.R141: 0.0394701883196831 x_pred[0,0]
   + 0.0523564778268337 x_pred[0,1] - 0.0186183657497168 x_pred[0,2]
   - 0.0244200173765421 x_pred[0,3] - 0.03672169521451 x_pred[0,4]
   - 0.133389875292778 x_pred[0,5] - 0.1751452535390854 x_pred[0,6]
   - 0.073305644094944 x_pred[0,7] - 0.126703292131424 x_pred[0,8]
   - 0.1575522273778915 x_pred[0,9] - 0.0777758285403252 x_pred[0,10]
   + 0.0496478565037251 x_pred[0,11] + 0.2017521560192108 x_pred[0,12]
   + 0.1635042577981949 x_pred[0,13] - 0.0730725228786469 x_pred[0,14]
   + 0.1342575401067734 x_pred[0,15] - 0.1185059249401093 x_pred[0,16]
   - 0.1370880901813507 x_pred[0,17] + 0.1666359752416611 x_pred[0,18]
   + 0.0528581254184246 x_pred[0,19] - 0.1756718903779984 x_pred[0,20]
   - 0.0937647372484207 x_pred[0,21] + 0.0275753941386938 x_pred[0,22]
   + 0.0758458226919174 x_pred[0,23] + 0.2377379387617111 x_pred[0,24]
   + 0.0251204036176205 x_pred[0,25] + 0.00977200828492641 x_pred[0,26]
   - 0.1699215620756149 x_pred[0,27] - 0.0856133848428726 x_pred[0,28]
   - 0.0901108980178833 x_pred[0,29] - 0.1797345578670502 x_pred[0,30]
   + 0.2484104633331299 x_pred[0,31] - 0.0146534396335483 x_pred[0,32]
   + 0.0740789249539375 x_pred[0,33] + 0.1351387202739716 x_pred[0,34]
   - 0.0259463358670473 x_pred[0,35] - 0.0802659690380096 x_pred[0,36]
   + sequential.linear_0.act[0,35] = -0.1515604555606842
 sequential.linear_0.R142: - 0.1132688894867897 x_pred[0,0]
   + 0.0691371634602547 x_pred[0,1] + 0.3663012385368347 x_pred[0,2]
   - 1.776074171066284 x_pred[0,3] - 0.8800661563873291 x_pred[0,4]
   + 0.0242237318307161 x_pred[0,5] + 0.1185334548354149 x_pred[0,6]
   - 0.1509844362735748 x_pred[0,7] - 0.0303554087877274 x_pred[0,8]
   + 0.0484085381031036 x_pred[0,9] + 0.0660793706774712 x_pred[0,10]
   + 0.1333612352609634 x_pred[0,11] - 0.0268691871315241 x_pred[0,12]
   + 0.0976067185401917 x_pred[0,13] + 7.252376526594162e-04 x_pred[0,14]
   - 0.0870450660586357 x_pred[0,15] + 0.1804530471563339 x_pred[0,16]
   + 0.0854274556040764 x_pred[0,17] + 0.1249599009752274 x_pred[0,18]
   - 0.0338208563625813 x_pred[0,19] - 0.0252209547907114 x_pred[0,20]
   - 0.0510164685547352 x_pred[0,21] - 0.078911580145359 x_pred[0,22]
   + 0.1775883734226227 x_pred[0,23] - 0.025728976354003 x_pred[0,24]
   - 0.0891512408852577 x_pred[0,25] - 0.222146287560463 x_pred[0,26]
   - 0.1488407105207443 x_pred[0,27] - 0.0780447348952293 x_pred[0,28]
   + 0.0847553163766861 x_pred[0,29] + 0.0677866339683533 x_pred[0,30]
   + 0.0703228190541267 x_pred[0,31] - 0.0225871633738279 x_pred[0,32]
   - 0.1562030166387558 x_pred[0,33] - 0.1088002622127533 x_pred[0,34]
   + 0.064136728644371 x_pred[0,35] + 0.124604195356369 x_pred[0,36]
   + sequential.linear_0.act[0,36] = 0.1002114117145538
 sequential.linear_0.R143: 0.0830351859331131 x_pred[0,0]
   + 0.075458712875843 x_pred[0,1] + 0.3477288484573364 x_pred[0,2]
   + 0.5866279602050781 x_pred[0,3] + 0.4210852384567261 x_pred[0,4]
   - 0.0384848825633526 x_pred[0,5] + 0.0324375554919243 x_pred[0,6]
   + 0.2024605423212051 x_pred[0,7] + 0.040321446955204 x_pred[0,8]
   - 0.1972138434648514 x_pred[0,9] + 0.1458038985729218 x_pred[0,10]
   - 0.0799118429422379 x_pred[0,11] + 0.208269864320755 x_pred[0,12]
   + 0.1422582566738129 x_pred[0,13] - 0.1149051636457443 x_pred[0,14]
   + 0.1426683515310287 x_pred[0,15] - 0.0390763320028782 x_pred[0,16]
   + 0.1027665734291077 x_pred[0,17] - 0.108216255903244 x_pred[0,18]
   - 0.1187693253159523 x_pred[0,19] - 0.139564573764801 x_pred[0,20]
   - 0.1082907766103745 x_pred[0,21] - 0.0378532335162163 x_pred[0,22]
   + 0.1305153667926788 x_pred[0,23] + 0.1289285272359848 x_pred[0,24]
   - 0.0972575098276138 x_pred[0,25] - 0.0800302848219872 x_pred[0,26]
   + 0.0962094441056252 x_pred[0,27] + 0.1677803993225098 x_pred[0,28]
   - 0.1054168865084648 x_pred[0,29] + 0.00971975084394217 x_pred[0,30]
   + 0.0521563701331615 x_pred[0,31] - 0.1956189721822739 x_pred[0,32]
   - 0.0667314976453781 x_pred[0,33] - 0.070423997938633 x_pred[0,34]
   - 0.07194983959198 x_pred[0,35] - 0.019202645868063 x_pred[0,36]
   + sequential.linear_0.act[0,37] = -0.0702817291021347
 sequential.linear_0.R144: - 0.4632296860218048 x_pred[0,0]
   + 0.3382403254508972 x_pred[0,1] + 0.2943198084831238 x_pred[0,2]
   + 0.1093703135848045 x_pred[0,3] + 0.0777632668614388 x_pred[0,4]
   + 0.0711472406983376 x_pred[0,5] - 0.00765988044440746 x_pred[0,6]
   + 0.1827762126922607 x_pred[0,7] + 0.0817213505506516 x_pred[0,8]
   - 0.1520557403564453 x_pred[0,9] + 0.0253352597355843 x_pred[0,10]
   + 0.1291897892951965 x_pred[0,11] + 0.0631815046072006 x_pred[0,12]
   + 0.0217703599482775 x_pred[0,13] + 0.0500942207872868 x_pred[0,14]
   + 0.0267833136022091 x_pred[0,15] + 0.7237664461135864 x_pred[0,16]
   - 0.0333008095622063 x_pred[0,17] + 0.0079728914424777 x_pred[0,18]
   + 0.031026603654027 x_pred[0,19] + 0.1393804550170898 x_pred[0,20]
   - 0.0323627181351185 x_pred[0,21] - 0.0840320661664009 x_pred[0,22]
   - 0.024370402097702 x_pred[0,23] - 0.0196558684110641 x_pred[0,24]
   + 0.0271359998732805 x_pred[0,25] - 1.052833318710327 x_pred[0,26]
   - 0.0695115625858307 x_pred[0,27] - 0.1540224850177765 x_pred[0,28]
   - 0.00487957987934351 x_pred[0,29] - 0.0544482097029686 x_pred[0,30]
   + 0.1205876469612122 x_pred[0,31] + 0.0792954415082932 x_pred[0,32]
   + 0.0744854062795639 x_pred[0,33] - 0.1463767886161804 x_pred[0,34]
   - 0.0921119600534439 x_pred[0,35] + 0.1117229238152504 x_pred[0,36]
   + sequential.linear_0.act[0,38] = -0.2882445752620697
 sequential.linear_0.R145: 0.0608716644346714 x_pred[0,0]
   - 0.0384794324636459 x_pred[0,1] + 0.0267358310520649 x_pred[0,2]
   + 0.0236572679132223 x_pred[0,3] + 0.136579841375351 x_pred[0,4]
   - 0.1400761306285858 x_pred[0,5] + 0.0928142368793488 x_pred[0,6]
   - 0.00389423104934394 x_pred[0,7] + 0.1455926150083542 x_pred[0,8]
   + 0.0215049497783184 x_pred[0,9] + 0.0856298953294754 x_pred[0,10]
   + 0.1861954927444458 x_pred[0,11] + 0.0694616138935089 x_pred[0,12]
   + 0.0813600346446037 x_pred[0,13] - 0.1308792382478714 x_pred[0,14]
   + 0.1036564707756042 x_pred[0,15] - 0.0568374805152416 x_pred[0,16]
   - 0.0174674987792969 x_pred[0,17] - 0.1189010441303253 x_pred[0,18]
   - 0.0703376084566116 x_pred[0,19] + 0.0258991681039333 x_pred[0,20]
   + 0.1505918204784393 x_pred[0,21] + 0.0513056665658951 x_pred[0,22]
   + 0.0980261787772179 x_pred[0,23] + 0.147481381893158 x_pred[0,24]
   - 0.2527870535850525 x_pred[0,25] - 0.228381484746933 x_pred[0,26]
   + 0.1102375090122223 x_pred[0,27] - 0.1159734800457954 x_pred[0,28]
   - 0.0489777289330959 x_pred[0,29] - 0.0476794168353081 x_pred[0,30]
   + 0.1224090084433556 x_pred[0,31] + 0.0835920870304108 x_pred[0,32]
   - 0.0256670974195004 x_pred[0,33] + 0.0186182707548141 x_pred[0,34]
   + 0.1454159021377563 x_pred[0,35] + 0.150001734495163 x_pred[0,36]
   + sequential.linear_0.act[0,39] = -0.0743798688054085
 sequential.linear_0.R146: - 0.0930658429861069 x_pred[0,0]
   + 0.2161016464233398 x_pred[0,1] - 0.0869591534137726 x_pred[0,2]
   + 0.040809627622366 x_pred[0,3] + 0.1236038058996201 x_pred[0,4]
   + 0.0477626956999302 x_pred[0,5] + 0.1025287806987762 x_pred[0,6]
   - 0.1106345057487488 x_pred[0,7] + 0.0544675551354885 x_pred[0,8]
   - 0.0030486173927784 x_pred[0,9] + 0.0421276241540909 x_pred[0,10]
   - 0.1361613720655441 x_pred[0,11] + 0.1762083023786545 x_pred[0,12]
   - 0.143162414431572 x_pred[0,13] + 0.1092542484402657 x_pred[0,14]
   - 0.1270527690649033 x_pred[0,15] + 0.0674183517694473 x_pred[0,16]
   - 0.1330544054508209 x_pred[0,17] - 0.0628635585308075 x_pred[0,18]
   + 0.0886515751481056 x_pred[0,19] + 0.1269035935401917 x_pred[0,20]
   - 0.0466023571789265 x_pred[0,21] - 0.0301918517798185 x_pred[0,22]
   + 0.0361832715570927 x_pred[0,23] - 0.1934392750263214 x_pred[0,24]
   - 0.0474047623574734 x_pred[0,25] + 0.0991716310381889 x_pred[0,26]
   + 0.1818083375692368 x_pred[0,27] - 0.0661827698349953 x_pred[0,28]
   + 0.0124941086396575 x_pred[0,29] + 0.0104256914928555 x_pred[0,30]
   + 0.0978244096040726 x_pred[0,31] + 0.0165194645524025 x_pred[0,32]
   - 0.0462922230362892 x_pred[0,33] + 0.12691530585289 x_pred[0,34]
   + 0.1473719328641891 x_pred[0,35] - 0.0692681521177292 x_pred[0,36]
   + sequential.linear_0.act[0,40] = -0.1160087957978249
 sequential.linear_0.R147: 0.0304000377655029 x_pred[0,0]
   + 0.0150001514703035 x_pred[0,1] - 0.0112190479412675 x_pred[0,2]
   - 0.030100729316473 x_pred[0,3] + 0.2225101739168167 x_pred[0,4]
   - 0.1058981940150261 x_pred[0,5] + 0.0522418171167374 x_pred[0,6]
   - 0.1352575719356537 x_pred[0,7] - 0.0114761060103774 x_pred[0,8]
   + 0.0710299164056778 x_pred[0,9] - 0.0553521923720837 x_pred[0,10]
   + 0.0701142549514771 x_pred[0,11] + 0.0382245592772961 x_pred[0,12]
   - 0.0692614912986755 x_pred[0,13] - 0.024084847420454 x_pred[0,14]
   - 0.00721685076132417 x_pred[0,15] - 0.0187205970287323 x_pred[0,16]
   - 0.053462453186512 x_pred[0,17] - 0.0994983464479446 x_pred[0,18]
   - 0.1242924705147743 x_pred[0,19] - 0.0758453533053398 x_pred[0,20]
   - 0.0398094914853573 x_pred[0,21] - 0.0932527780532837 x_pred[0,22]
   - 0.1527726650238037 x_pred[0,23] - 0.0892790555953979 x_pred[0,24]
   - 0.1258325129747391 x_pred[0,25] + 0.1758115738630295 x_pred[0,26]
   + 0.1367632746696472 x_pred[0,27] - 0.0244129505008459 x_pred[0,28]
   - 0.0955474451184273 x_pred[0,29] - 0.1747101098299026 x_pred[0,30]
   + 0.1055753231048584 x_pred[0,31] + 0.0697162449359894 x_pred[0,32]
   - 0.0204202886670828 x_pred[0,33] + 0.0991200059652328 x_pred[0,34]
   + 0.1132829412817955 x_pred[0,35] - 0.0824030190706253 x_pred[0,36]
   + sequential.linear_0.act[0,41] = -0.1361245065927505
 sequential.linear_0.R148: 0.1691109091043472 x_pred[0,0]
   + 0.6677519679069519 x_pred[0,1] + 0.0871991813182831 x_pred[0,2]
   - 2.095548152923584 x_pred[0,3] - 3.364067792892456 x_pred[0,4]
   - 0.064466118812561 x_pred[0,5] - 0.0534917563199997 x_pred[0,6]
   + 0.00955689046531916 x_pred[0,7] - 0.0569760948419571 x_pred[0,8]
   + 0.0216734111309052 x_pred[0,9] + 0.0333032719790936 x_pred[0,10]
   + 0.0049268864095211 x_pred[0,11] - 0.0322612635791302 x_pred[0,12]
   + 0.0415047444403172 x_pred[0,13] + 0.0289067476987839 x_pred[0,14]
   - 0.0361242890357971 x_pred[0,15] + 0.2612397074699402 x_pred[0,16]
   + 0.0346263200044632 x_pred[0,17] - 0.0201673712581396 x_pred[0,18]
   + 0.0189938209950924 x_pred[0,19] - 0.0312898270785809 x_pred[0,20]
   - 0.0287455320358276 x_pred[0,21] + 0.0582702942192554 x_pred[0,22]
   + 0.0120033724233508 x_pred[0,23] + 0.0187186188995838 x_pred[0,24]
   - 0.0399451814591885 x_pred[0,25] - 0.4941821396350861 x_pred[0,26]
   + 0.017292408272624 x_pred[0,27] - 0.0053702425211668 x_pred[0,28]
   - 0.00282018585130572 x_pred[0,29] + 0.00610831705853343 x_pred[0,30]
   - 0.0367837175726891 x_pred[0,31] - 0.0199019052088261 x_pred[0,32]
   - 0.0217464696615934 x_pred[0,33] + 0.0176746863871813 x_pred[0,34]
   + 0.027034055441618 x_pred[0,35] - 0.0582203455269337 x_pred[0,36]
   + sequential.linear_0.act[0,42] = -0.3923161029815674
 sequential.linear_0.R149: 0.0315592177212238 x_pred[0,0]
   - 0.110038660466671 x_pred[0,1] + 0.0401365756988525 x_pred[0,2]
   + 0.05689961835742 x_pred[0,3] - 0.0133607974275947 x_pred[0,4]
   - 0.056726586073637 x_pred[0,5] - 0.0321192666888237 x_pred[0,6]
   + 0.1299186497926712 x_pred[0,7] + 0.0756320506334305 x_pred[0,8]
   - 0.1080984473228455 x_pred[0,9] - 0.0611746944487095 x_pred[0,10]
   + 0.0195292681455612 x_pred[0,11] + 0.1008654311299324 x_pred[0,12]
   - 0.040279395878315 x_pred[0,13] - 0.1628784090280533 x_pred[0,14]
   - 0.0849648043513298 x_pred[0,15] - 0.1793069839477539 x_pred[0,16]
   - 0.038649957627058 x_pred[0,17] + 0.1547974199056625 x_pred[0,18]
   + 0.0548565723001957 x_pred[0,19] - 0.0860808715224266 x_pred[0,20]
   - 0.1164919659495354 x_pred[0,21] + 0.1648942977190018 x_pred[0,22]
   + 0.1196580454707146 x_pred[0,23] + 0.0705170184373856 x_pred[0,24]
   + 0.0305148884654045 x_pred[0,25] - 0.0700322613120079 x_pred[0,26]
   + 0.1559731215238571 x_pred[0,27] + 0.0478263013064861 x_pred[0,28]
   + 0.0045996755361557 x_pred[0,29] - 0.0944642350077629 x_pred[0,30]
   + 0.0492282286286354 x_pred[0,31] + 0.106416217982769 x_pred[0,32]
   + 0.0682340562343597 x_pred[0,33] - 0.0808350667357445 x_pred[0,34]
   + 0.029744666069746 x_pred[0,35] - 0.0950046330690384 x_pred[0,36]
   + sequential.linear_0.act[0,43] = -0.1684000790119171
 sequential.linear_0.R150: 0.1085468903183937 x_pred[0,0]
   - 0.021404692903161 x_pred[0,1] + 0.00150425534229726 x_pred[0,2]
   - 0.00647196685895324 x_pred[0,3] + 0.1360790580511093 x_pred[0,4]
   + 0.0234553776681423 x_pred[0,5] - 0.0901255831122398 x_pred[0,6]
   - 0.1568743884563446 x_pred[0,7] - 0.0221659149974585 x_pred[0,8]
   + 0.0924414470791817 x_pred[0,9] + 0.00727510778233409 x_pred[0,10]
   + 0.1594105809926987 x_pred[0,11] - 0.0623644106090069 x_pred[0,12]
   - 0.0144504616037011 x_pred[0,13] + 0.00779866520315409 x_pred[0,14]
   - 0.0208681616932154 x_pred[0,15] - 0.1378688812255859 x_pred[0,16]
   + 0.106822669506073 x_pred[0,17] + 0.1198893636465073 x_pred[0,18]
   - 0.1132869124412537 x_pred[0,19] - 0.139952540397644 x_pred[0,20]
   - 0.0431605614721775 x_pred[0,21] - 0.0696553140878677 x_pred[0,22]
   - 0.04318543151021 x_pred[0,23] - 0.1043796166777611 x_pred[0,24]
   + 0.016842482611537 x_pred[0,25] - 0.1409380584955215 x_pred[0,26]
   - 0.0108334561809897 x_pred[0,27] - 0.1385904848575592 x_pred[0,28]
   + 0.0460850745439529 x_pred[0,29] - 0.0334207266569138 x_pred[0,30]
   - 0.1282206028699875 x_pred[0,31] - 0.0800994634628296 x_pred[0,32]
   + 0.1274254620075226 x_pred[0,33] + 0.0724775120615959 x_pred[0,34]
   + 0.1513999998569489 x_pred[0,35] - 0.134301632642746 x_pred[0,36]
   + sequential.linear_0.act[0,44] = -0.1176443472504616
 sequential.linear_0.R151: 0.0664983615279198 x_pred[0,0]
   + 0.00312200281769037 x_pred[0,1] + 0.2011486887931824 x_pred[0,2]
   - 0.9622607231140137 x_pred[0,3] - 0.3275594711303711 x_pred[0,4]
   - 0.0869553536176682 x_pred[0,5] + 0.00372242298908532 x_pred[0,6]
   + 0.0442794598639011 x_pred[0,7] - 0.0815161764621735 x_pred[0,8]
   - 0.0186744704842567 x_pred[0,9] - 0.0623263902962208 x_pred[0,10]
   - 0.0358308367431164 x_pred[0,11] + 0.17103011906147 x_pred[0,12]
   - 0.1388129740953445 x_pred[0,13] + 0.1204266920685768 x_pred[0,14]
   + 0.0145744187757373 x_pred[0,15] + 0.2116768062114716 x_pred[0,16]
   - 0.1587640047073364 x_pred[0,17] + 0.1990981251001358 x_pred[0,18]
   + 0.0353001914918423 x_pred[0,19] - 0.00854078587144613 x_pred[0,20]
   + 0.0435238368809223 x_pred[0,21] - 0.1190686002373695 x_pred[0,22]
   + 0.1633940935134888 x_pred[0,23] - 0.1634944230318069 x_pred[0,24]
   + 0.1805979013442993 x_pred[0,25] - 0.6366961002349854 x_pred[0,26]
   - 0.045324794948101 x_pred[0,27] - 0.1082407906651497 x_pred[0,28]
   - 0.0827840492129326 x_pred[0,29] + 0.0963424146175385 x_pred[0,30]
   - 0.1313662081956863 x_pred[0,31] - 0.11247568577528 x_pred[0,32]
   - 0.00366766867227852 x_pred[0,33] - 0.1515588760375977 x_pred[0,34]
   + 0.0908316969871521 x_pred[0,35] - 0.0305387377738953 x_pred[0,36]
   + sequential.linear_0.act[0,45] = -0.2915718555450439
 sequential.linear_0.R152: 0.2410741150379181 x_pred[0,0]
   - 0.1287823915481567 x_pred[0,1] + 0.4171448647975922 x_pred[0,2]
   - 1.155679225921631 x_pred[0,3] - 0.6473773717880249 x_pred[0,4]
   - 0.0176955685019493 x_pred[0,5] - 0.0223673768341541 x_pred[0,6]
   + 0.0850209146738052 x_pred[0,7] - 0.0489661805331707 x_pred[0,8]
   - 0.0344256274402142 x_pred[0,9] - 0.0809814035892487 x_pred[0,10]
   - 0.0588663220405579 x_pred[0,11] + 0.1482711583375931 x_pred[0,12]
   + 0.0461662784218788 x_pred[0,13] + 0.070453405380249 x_pred[0,14]
   + 0.0900531932711601 x_pred[0,15] + 0.1196639910340309 x_pred[0,16]
   - 0.108772799372673 x_pred[0,17] - 0.1409565210342407 x_pred[0,18]
   - 0.0295970141887665 x_pred[0,19] + 0.0807921141386032 x_pred[0,20]
   + 0.0599362254142761 x_pred[0,21] + 0.0720934867858887 x_pred[0,22]
   - 0.0390940345823765 x_pred[0,23] - 2.40146e-05 x_pred[0,24]
   - 0.0611317977309227 x_pred[0,25] - 0.0315165892243385 x_pred[0,26]
   - 0.1300375312566757 x_pred[0,27] + 0.0386086069047451 x_pred[0,28]
   - 0.0374096781015396 x_pred[0,29] + 0.00282060448080301 x_pred[0,30]
   + 0.0249830987304449 x_pred[0,31] + 0.1893841624259949 x_pred[0,32]
   + 0.0596505366265774 x_pred[0,33] - 0.0892371162772179 x_pred[0,34]
   - 0.0528502650558949 x_pred[0,35] - 0.0139454370364547 x_pred[0,36]
   + sequential.linear_0.act[0,46] = 0.1826010942459106
 sequential.linear_0.R153: 0.3641464114189148 x_pred[0,0]
   + 0.25555419921875 x_pred[0,1] - 0.0203453171998262 x_pred[0,2]
   + 0.18600133061409 x_pred[0,3] + 0.1536282598972321 x_pred[0,4]
   - 0.0128469709306955 x_pred[0,5] - 0.0691337734460831 x_pred[0,6]
   + 0.1789831072092056 x_pred[0,7] - 0.1755113899707794 x_pred[0,8]
   - 0.0816811323165894 x_pred[0,9] + 0.0789684653282166 x_pred[0,10]
   + 0.1561512649059296 x_pred[0,11] - 0.0257851667702198 x_pred[0,12]
   + 0.164742037653923 x_pred[0,13] - 0.0908908620476723 x_pred[0,14]
   - 0.0324716083705425 x_pred[0,15] + 0.0480022057890892 x_pred[0,16]
   - 0.0349548123776913 x_pred[0,17] + 0.0607179142534733 x_pred[0,18]
   - 0.1026036143302917 x_pred[0,19] + 0.0250910203903913 x_pred[0,20]
   - 0.0893168970942497 x_pred[0,21] - 0.1103359162807465 x_pred[0,22]
   + 0.0586623810231686 x_pred[0,23] + 0.1787443310022354 x_pred[0,24]
   - 0.0285685807466507 x_pred[0,25] - 0.122817762196064 x_pred[0,26]
   - 0.0886184275150299 x_pred[0,27] + 0.063460573554039 x_pred[0,28]
   - 0.1029351800680161 x_pred[0,29] + 0.0414705388247967 x_pred[0,30]
   - 0.00533131882548332 x_pred[0,31] - 0.066170908510685 x_pred[0,32]
   + 0.2011999487876892 x_pred[0,33] - 0.1415413320064545 x_pred[0,34]
   + 0.0319091975688934 x_pred[0,35] + 0.171506330370903 x_pred[0,36]
   + sequential.linear_0.act[0,47] = -0.0743717104196548
 sequential.linear_0.R154: 0.2418968379497528 x_pred[0,0]
   + 0.836640477180481 x_pred[0,1] + 0.1972574591636658 x_pred[0,2]
   - 1.914907574653625 x_pred[0,3] - 2.595380306243896 x_pred[0,4]
   + 0.0256754439324141 x_pred[0,5] + 0.0899330303072929 x_pred[0,6]
   + 0.00326372939161956 x_pred[0,7] + 0.012512288056314 x_pred[0,8]
   - 0.0716351866722107 x_pred[0,9] - 0.0566113740205765 x_pred[0,10]
   + 0.056132797151804 x_pred[0,11] - 0.038273811340332 x_pred[0,12]
   - 0.0131892208009958 x_pred[0,13] - 0.0650920048356056 x_pred[0,14]
   + 0.0186793319880962 x_pred[0,15] + 0.2487428188323975 x_pred[0,16]
   + 0.0335128642618656 x_pred[0,17] - 0.0251154787838459 x_pred[0,18]
   + 0.065338172018528 x_pred[0,19] + 0.0738590881228447 x_pred[0,20]
   + 0.00152983563020825 x_pred[0,21] + 0.0369640812277794 x_pred[0,22]
   - 0.0341535471379757 x_pred[0,23] + 0.0293661188334227 x_pred[0,24]
   + 0.0320418365299702 x_pred[0,25] - 0.410602867603302 x_pred[0,26]
   + 0.0199084747582674 x_pred[0,27] + 0.0100705502554774 x_pred[0,28]
   - 0.0350997522473335 x_pred[0,29] - 0.0396846756339073 x_pred[0,30]
   - 0.0272477399557829 x_pred[0,31] - 0.0655267909169197 x_pred[0,32]
   + 0.0461500436067581 x_pred[0,33] + 0.1497600972652435 x_pred[0,34]
   + 0.0977408364415169 x_pred[0,35] + 0.0599602945148945 x_pred[0,36]
   + sequential.linear_0.act[0,48] = -0.2028674334287643
 sequential.linear_0.R155: 0.0365282855927944 x_pred[0,0]
   - 0.00988063123077154 x_pred[0,1] + 0.0624554194509983 x_pred[0,2]
   + 0.2269227653741837 x_pred[0,3] + 0.1076134294271469 x_pred[0,4]
   - 0.0891074240207672 x_pred[0,5] - 0.1364002674818039 x_pred[0,6]
   - 0.000351641 x_pred[0,7] - 0.1668217927217484 x_pred[0,8]
   + 0.00786798074841499 x_pred[0,9] - 0.0106173679232597 x_pred[0,10]
   + 0.3426125645637512 x_pred[0,11] + 0.0263950191438198 x_pred[0,12]
   + 0.0627123713493347 x_pred[0,13] - 0.0744210630655289 x_pred[0,14]
   + 0.1674441397190094 x_pred[0,15] - 0.1168689802289009 x_pred[0,16]
   + 0.0636360794305801 x_pred[0,17] + 0.1056715622544289 x_pred[0,18]
   - 0.0443628989160061 x_pred[0,19] - 0.2604294419288635 x_pred[0,20]
   + 0.0915068238973618 x_pred[0,21] + 0.1438529938459396 x_pred[0,22]
   - 0.00516429776325822 x_pred[0,23] + 0.1213877722620964 x_pred[0,24]
   - 0.0953228622674942 x_pred[0,25] - 0.0820726603269577 x_pred[0,26]
   + 0.0675188228487968 x_pred[0,27] + 0.1137923821806908 x_pred[0,28]
   - 0.0514504872262478 x_pred[0,29] + 0.1342424005270004 x_pred[0,30]
   - 0.041416946798563 x_pred[0,31] - 0.0489807985723019 x_pred[0,32]
   + 0.0118435500189662 x_pred[0,33] + 0.0664147138595581 x_pred[0,34]
   + 0.1262311637401581 x_pred[0,35] - 0.0578894577920437 x_pred[0,36]
   + sequential.linear_0.act[0,49] = -0.0519504509866238
 sequential.linear_0.R156: 0.3249245285987854 x_pred[0,0]
   + 0.2115324735641479 x_pred[0,1] - 0.0717611089348793 x_pred[0,2]
   + 0.1959219574928284 x_pred[0,3] + 0.1752142012119293 x_pred[0,4]
   - 5.4295134032145143e-04 x_pred[0,5] - 0.0973601639270782 x_pred[0,6]
   + 0.0821973755955696 x_pred[0,7] + 0.1551048755645752 x_pred[0,8]
   - 0.2446861863136292 x_pred[0,9] + 0.129416435956955 x_pred[0,10]
   + 0.0840799137949944 x_pred[0,11] + 0.1602006405591965 x_pred[0,12]
   + 0.1847076267004013 x_pred[0,13] + 0.0515206754207611 x_pred[0,14]
   - 0.0264382883906364 x_pred[0,15] - 0.1122166737914085 x_pred[0,16]
   + 0.1829696893692017 x_pred[0,17] + 0.0681187659502029 x_pred[0,18]
   + 0.0977997705340385 x_pred[0,19] - 0.0608022660017014 x_pred[0,20]
   + 0.1322818547487259 x_pred[0,21] + 0.00920147262513638 x_pred[0,22]
   + 0.0669056847691536 x_pred[0,23] - 0.0556972622871399 x_pred[0,24]
   - 0.1193404272198677 x_pred[0,25] - 0.0781211107969284 x_pred[0,26]
   - 0.1278924494981766 x_pred[0,27] + 0.0253752805292606 x_pred[0,28]
   + 0.0135734481737018 x_pred[0,29] + 0.0275195948779583 x_pred[0,30]
   + 0.178429052233696 x_pred[0,31] - 0.1249337494373322 x_pred[0,32]
   + 0.2668400704860687 x_pred[0,33] - 0.1736686676740646 x_pred[0,34]
   - 0.0177738051861525 x_pred[0,35] + 0.1188519820570946 x_pred[0,36]
   + sequential.linear_0.act[0,50] = -0.1094845607876778
 sequential.linear_0.R157: 0.1249496340751648 x_pred[0,0]
   + 0.1892195045948029 x_pred[0,1] + 0.1625979691743851 x_pred[0,2]
   + 0.0780084654688835 x_pred[0,3] + 0.2102551758289337 x_pred[0,4]
   - 0.1254645437002182 x_pred[0,5] + 0.1442968547344208 x_pred[0,6]
   + 0.00461971340700984 x_pred[0,7] - 0.0819390416145325 x_pred[0,8]
   - 0.0227243509143591 x_pred[0,9] + 0.0759601667523384 x_pred[0,10]
   + 0.0388815216720104 x_pred[0,11] + 0.0491622239351273 x_pred[0,12]
   - 0.1109085381031036 x_pred[0,13] + 0.2784811854362488 x_pred[0,14]
   - 0.1202023550868034 x_pred[0,15] - 0.0402971021831036 x_pred[0,16]
   + 0.0428199507296085 x_pred[0,17] + 0.3069867491722107 x_pred[0,18]
   + 0.1450405269861221 x_pred[0,19] - 0.0279568787664175 x_pred[0,20]
   - 0.183177649974823 x_pred[0,21] - 0.0412348955869675 x_pred[0,22]
   + 0.0416619405150414 x_pred[0,23] + 0.0129591654986143 x_pred[0,24]
   - 0.1586481183767319 x_pred[0,25] + 0.0832233056426048 x_pred[0,26]
   - 0.0274106319993734 x_pred[0,27] - 0.0729791596531868 x_pred[0,28]
   + 0.0711088925600052 x_pred[0,29] - 0.2810367047786713 x_pred[0,30]
   - 0.1108860969543457 x_pred[0,31] + 0.0874699279665947 x_pred[0,32]
   - 0.0789573565125465 x_pred[0,33] + 0.0177065823227167 x_pred[0,34]
   + 0.0683456659317017 x_pred[0,35] - 0.0548012629151344 x_pred[0,36]
   + sequential.linear_0.act[0,51] = -0.1684399098157883
 sequential.linear_0.R158: - 0.0373936221003532 x_pred[0,0]
   - 0.0770953819155693 x_pred[0,1] + 0.0616945661604404 x_pred[0,2]
   + 0.1673663854598999 x_pred[0,3] - 0.0176413431763649 x_pred[0,4]
   - 0.0459726117551327 x_pred[0,5] - 0.103433184325695 x_pred[0,6]
   + 0.1499413549900055 x_pred[0,7] - 0.1398119628429413 x_pred[0,8]
   - 0.1504019647836685 x_pred[0,9] + 0.203460618853569 x_pred[0,10]
   + 0.1772531270980835 x_pred[0,11] - 0.0312682688236237 x_pred[0,12]
   + 0.0220997799187899 x_pred[0,13] - 0.1406588107347488 x_pred[0,14]
   + 0.0528902672231197 x_pred[0,15] + 0.0867112427949905 x_pred[0,16]
   - 0.1196692064404488 x_pred[0,17] + 0.00874993856996298 x_pred[0,18]
   - 0.0613063052296638 x_pred[0,19] + 0.0103683136403561 x_pred[0,20]
   - 0.1372069865465164 x_pred[0,21] - 0.00306318 x_pred[0,22]
   + 0.124758169054985 x_pred[0,23] + 0.0100358100607991 x_pred[0,24]
   + 0.0265148095786572 x_pred[0,25] + 0.0288380105048418 x_pred[0,26]
   - 0.0616494044661522 x_pred[0,27] + 0.0640737786889076 x_pred[0,28]
   - 0.0458339937031269 x_pred[0,29] - 0.1520851254463196 x_pred[0,30]
   + 0.2190723270177841 x_pred[0,31] - 0.0424686633050442 x_pred[0,32]
   + 0.0441215448081493 x_pred[0,33] - 0.0838999152183533 x_pred[0,34]
   - 0.0760013982653618 x_pred[0,35] + 0.00827017799019814 x_pred[0,36]
   + sequential.linear_0.act[0,52] = -0.1387560069561005
 sequential.linear_0.R159: - 0.0148626426234841 x_pred[0,0]
   - 0.133526548743248 x_pred[0,1] + 0.1943841129541397 x_pred[0,2]
   + 0.645014762878418 x_pred[0,3] + 0.4666200280189514 x_pred[0,4]
   + 0.0594348162412643 x_pred[0,5] - 0.0363425463438034 x_pred[0,6]
   + 0.0850406438112259 x_pred[0,7] - 0.1415743976831436 x_pred[0,8]
   + 0.0234483741223812 x_pred[0,9] - 0.1478001028299332 x_pred[0,10]
   - 0.1520707011222839 x_pred[0,11] + 0.1099483370780945 x_pred[0,12]
   - 0.1179061979055405 x_pred[0,13] - 0.0524004213511944 x_pred[0,14]
   - 0.1555911898612976 x_pred[0,15] + 0.1171388849616051 x_pred[0,16]
   + 0.0246415212750435 x_pred[0,17] - 0.0755574032664299 x_pred[0,18]
   + 2.8479e-05 x_pred[0,19] - 0.1135758683085442 x_pred[0,20]
   + 0.1561938524246216 x_pred[0,21] + 0.0707137286663055 x_pred[0,22]
   - 0.1204138696193695 x_pred[0,23] + 0.0745954588055611 x_pred[0,24]
   - 0.0767210572957993 x_pred[0,25] - 0.175000861287117 x_pred[0,26]
   - 0.1734338998794556 x_pred[0,27] + 0.1237630769610405 x_pred[0,28]
   + 0.0905445367097855 x_pred[0,29] - 0.0873358771204948 x_pred[0,30]
   + 0.0164890289306641 x_pred[0,31] - 0.00995064061135054 x_pred[0,32]
   - 0.0680621787905693 x_pred[0,33] - 0.1646675020456314 x_pred[0,34]
   + 0.0313814729452133 x_pred[0,35] + 0.0902864709496498 x_pred[0,36]
   + sequential.linear_0.act[0,53] = -0.0136897098273039
 sequential.linear_0.R160: - 0.0177403 x_pred[0,0]
   + 0.0827176794409752 x_pred[0,1] + 0.0677263736724854 x_pred[0,2]
   + 0.2498333901166916 x_pred[0,3] + 0.0409625917673111 x_pred[0,4]
   + 0.00620202254503965 x_pred[0,5] - 0.2049447596073151 x_pred[0,6]
   - 0.00510884309187531 x_pred[0,7] - 0.1290425658226013 x_pred[0,8]
   - 0.1091552153229713 x_pred[0,9] - 0.0255782902240753 x_pred[0,10]
   - 0.0454522334039211 x_pred[0,11] + 0.00635072076693177 x_pred[0,12]
   - 0.1578138023614883 x_pred[0,13] - 0.2480100095272064 x_pred[0,14]
   - 0.0276145357638597 x_pred[0,15] + 0.2591943144798279 x_pred[0,16]
   - 0.0447022244334221 x_pred[0,17] + 0.2444269508123398 x_pred[0,18]
   + 0.0479661673307419 x_pred[0,19] - 0.1334760040044785 x_pred[0,20]
   - 0.1708101779222488 x_pred[0,21] - 0.2180391252040863 x_pred[0,22]
   + 0.1756546795368195 x_pred[0,23] + 0.2765266299247742 x_pred[0,24]
   - 0.00709544867277145 x_pred[0,25] - 0.2587965428829193 x_pred[0,26]
   - 0.0263959094882011 x_pred[0,27] + 0.00151061196811497 x_pred[0,28]
   - 0.023356331512332 x_pred[0,29] + 0.1544062942266464 x_pred[0,30]
   + 0.1114195138216019 x_pred[0,31] + 0.1758565604686737 x_pred[0,32]
   + 0.1624041944742203 x_pred[0,33] - 0.2164114713668823 x_pred[0,34]
   - 0.00211005657911301 x_pred[0,35] - 0.0374944806098938 x_pred[0,36]
   + sequential.linear_0.act[0,54] = -0.2583884298801422
 sequential.linear_0.R161: - 0.0193785075098276 x_pred[0,0]
   + 0.0128117306157947 x_pred[0,1] - 0.00345971924252808 x_pred[0,2]
   - 0.0911605879664421 x_pred[0,3] - 0.0996640995144844 x_pred[0,4]
   - 0.0218586605042219 x_pred[0,5] - 0.1412319540977478 x_pred[0,6]
   - 0.1664832383394241 x_pred[0,7] - 0.1128341779112816 x_pred[0,8]
   + 0.0497066043317318 x_pred[0,9] + 0.1548915356397629 x_pred[0,10]
   + 0.355851024389267 x_pred[0,11] + 0.018160630017519 x_pred[0,12]
   + 0.2478578686714172 x_pred[0,13] + 0.0326039493083954 x_pred[0,14]
   + 0.1865371465682983 x_pred[0,15] + 0.0223331078886986 x_pred[0,16]
   - 0.1459784954786301 x_pred[0,17] - 0.152970090508461 x_pred[0,18]
   - 0.0237014554440975 x_pred[0,19] - 0.2897347211837769 x_pred[0,20]
   + 0.1117778196930885 x_pred[0,21] - 0.1661250293254852 x_pred[0,22]
   - 0.1653907597064972 x_pred[0,23] - 0.0628355368971825 x_pred[0,24]
   - 0.2582695782184601 x_pred[0,25] - 0.0367584265768528 x_pred[0,26]
   - 0.1005973443388939 x_pred[0,27] + 0.1649465411901474 x_pred[0,28]
   - 0.0315842889249325 x_pred[0,29] + 0.2094858437776566 x_pred[0,30]
   + 0.1257321238517761 x_pred[0,31] - 0.1116670519113541 x_pred[0,32]
   + 0.1308142393827438 x_pred[0,33] - 0.0732529163360596 x_pred[0,34]
   + 0.2071245163679123 x_pred[0,35] + 0.00877941958606243 x_pred[0,36]
   + sequential.linear_0.act[0,55] = -0.2020951956510544
 sequential.linear_0.R162: - 0.0232791230082512 x_pred[0,0]
   + 0.1967269778251648 x_pred[0,1] + 0.1435811221599579 x_pred[0,2]
   + 0.2160506546497345 x_pred[0,3] + 0.1480230987071991 x_pred[0,4]
   - 0.0267885494977236 x_pred[0,5] - 0.1233250945806503 x_pred[0,6]
   - 0.0687601715326309 x_pred[0,7] - 0.1707198917865753 x_pred[0,8]
   + 0.0206953659653664 x_pred[0,9] + 0.0670792981982231 x_pred[0,10]
   - 0.0222262907773256 x_pred[0,11] + 0.0334465354681015 x_pred[0,12]
   + 0.0209680497646332 x_pred[0,13] + 0.1240343078970909 x_pred[0,14]
   + 0.0523393973708153 x_pred[0,15] - 0.0557449832558632 x_pred[0,16]
   - 0.1301731914281845 x_pred[0,17] - 0.090301938354969 x_pred[0,18]
   - 0.0246956869959831 x_pred[0,19] + 0.1485642492771149 x_pred[0,20]
   + 0.1802912652492523 x_pred[0,21] + 0.1446478068828583 x_pred[0,22]
   + 0.0357023626565933 x_pred[0,23] + 0.1443214565515518 x_pred[0,24]
   + 0.0336983948945999 x_pred[0,25] - 0.1400608271360397 x_pred[0,26]
   + 0.0576839186251163 x_pred[0,27] - 0.0713999643921852 x_pred[0,28]
   - 0.0506793260574341 x_pred[0,29] - 0.0463795065879822 x_pred[0,30]
   + 0.1517019122838974 x_pred[0,31] - 0.1055902019143105 x_pred[0,32]
   + 0.1509507596492767 x_pred[0,33] + 0.1766173839569092 x_pred[0,34]
   + 0.1348701566457748 x_pred[0,35] + 0.00286665069870651 x_pred[0,36]
   + sequential.linear_0.act[0,56] = -0.0784230753779411
 sequential.linear_0.R163: 0.0868359208106995 x_pred[0,0]
   + 0.0346230454742908 x_pred[0,1] + 0.0802877172827721 x_pred[0,2]
   + 0.5332523584365845 x_pred[0,3] + 0.2609394490718842 x_pred[0,4]
   + 0.1415112763643265 x_pred[0,5] + 0.0713801458477974 x_pred[0,6]
   + 0.1036361530423164 x_pred[0,7] + 0.0939700081944466 x_pred[0,8]
   + 0.065599225461483 x_pred[0,9] - 0.0802026316523552 x_pred[0,10]
   - 0.0711480751633644 x_pred[0,11] - 0.0931560322642326 x_pred[0,12]
   - 0.0170784145593643 x_pred[0,13] - 0.1350294798612595 x_pred[0,14]
   - 0.0199136715382338 x_pred[0,15] - 0.0346395373344421 x_pred[0,16]
   - 0.0656100660562515 x_pred[0,17] + 0.1155213788151741 x_pred[0,18]
   - 0.0367018803954124 x_pred[0,19] + 0.1068366691470146 x_pred[0,20]
   - 0.0373288467526436 x_pred[0,21] - 0.0782240107655525 x_pred[0,22]
   + 0.0333810970187187 x_pred[0,23] + 0.1160789877176285 x_pred[0,24]
   - 0.1135601922869682 x_pred[0,25] + 0.2437139004468918 x_pred[0,26]
   - 0.039808314293623 x_pred[0,27] - 0.1436358839273453 x_pred[0,28]
   + 0.0794162377715111 x_pred[0,29] - 0.0572139024734497 x_pred[0,30]
   + 0.0717818513512611 x_pred[0,31] + 0.0925462767481804 x_pred[0,32]
   + 0.0269912257790565 x_pred[0,33] + 0.1238106265664101 x_pred[0,34]
   + 0.0641979798674583 x_pred[0,35] + 0.0413625948131084 x_pred[0,36]
   + sequential.linear_0.act[0,57] = 0.00308215362019837
 sequential.linear_0.R164: 0.0144933462142944 x_pred[0,0]
   - 6.93177e-05 x_pred[0,1] + 0.1425871104001999 x_pred[0,2]
   - 0.1403641551733017 x_pred[0,3] + 0.1174086257815361 x_pred[0,4]
   - 0.2298069298267365 x_pred[0,5] + 0.2280572354793549 x_pred[0,6]
   + 0.1485430896282196 x_pred[0,7] - 0.00225946540012956 x_pred[0,8]
   - 0.2256560176610947 x_pred[0,9] + 0.2591235637664795 x_pred[0,10]
   + 0.1863366663455963 x_pred[0,11] + 0.1020380929112434 x_pred[0,12]
   - 0.1056856364011765 x_pred[0,13] - 0.2054495364427567 x_pred[0,14]
   + 0.0108123533427715 x_pred[0,15] + 0.0935731530189514 x_pred[0,16]
   + 0.1280204802751541 x_pred[0,17] + 0.2613821923732758 x_pred[0,18]
   + 0.1548174917697906 x_pred[0,19] - 0.2517009377479553 x_pred[0,20]
   - 0.2435965090990067 x_pred[0,21] + 0.0324883833527565 x_pred[0,22]
   - 0.1940292418003082 x_pred[0,23] + 0.2584544122219086 x_pred[0,24]
   - 0.0194054413586855 x_pred[0,25] + 0.0356918908655643 x_pred[0,26]
   - 0.0542631857097149 x_pred[0,27] - 0.1644613146781921 x_pred[0,28]
   - 0.0603304766118526 x_pred[0,29] - 0.0470119640231133 x_pred[0,30]
   + 0.0476862974464893 x_pred[0,31] + 0.0962678417563438 x_pred[0,32]
   + 0.0718766748905182 x_pred[0,33] - 0.1632881462574005 x_pred[0,34]
   - 0.0376045145094395 x_pred[0,35] + 0.1968289613723755 x_pred[0,36]
   + sequential.linear_0.act[0,58] = -0.2110403627157211
 sequential.linear_0.R165: 0.0536013059318066 x_pred[0,0]
   + 0.00327010732144117 x_pred[0,1] + 0.0776695907115936 x_pred[0,2]
   + 0.271221250295639 x_pred[0,3] + 0.1849677115678787 x_pred[0,4]
   + 0.1121944114565849 x_pred[0,5] + 0.00984858255833387 x_pred[0,6]
   + 0.1740981340408325 x_pred[0,7] + 0.0138972764834762 x_pred[0,8]
   - 0.0900925621390343 x_pred[0,9] + 0.1216228380799294 x_pred[0,10]
   - 0.0479901172220707 x_pred[0,11] + 0.1628670990467072 x_pred[0,12]
   + 0.1007852181792259 x_pred[0,13] - 0.2233405709266663 x_pred[0,14]
   + 0.259034663438797 x_pred[0,15] - 0.080882154405117 x_pred[0,16]
   - 0.0717737823724747 x_pred[0,17] - 0.0764360576868057 x_pred[0,18]
   + 0.0628034025430679 x_pred[0,19] + 0.1395761519670486 x_pred[0,20]
   + 0.0232102926820517 x_pred[0,21] + 0.0996565818786621 x_pred[0,22]
   - 0.037479393184185 x_pred[0,23] + 0.0611650310456753 x_pred[0,24]
   - 0.1224047392606735 x_pred[0,25] - 0.1187426671385765 x_pred[0,26]
   + 0.0648457184433937 x_pred[0,27] - 0.0560541972517967 x_pred[0,28]
   + 0.143572136759758 x_pred[0,29] + 0.022345170378685 x_pred[0,30]
   - 0.1214202120900154 x_pred[0,31] - 0.0609938837587833 x_pred[0,32]
   - 0.0534193925559521 x_pred[0,33] + 0.0650272965431213 x_pred[0,34]
   + 0.1549896597862244 x_pred[0,35] - 0.0236903987824917 x_pred[0,36]
   + sequential.linear_0.act[0,59] = -0.0284350477159023
 sequential.linear_0.R166: 0.539614200592041 x_pred[0,0]
   - 0.1002499461174011 x_pred[0,1] + 0.3769135475158691 x_pred[0,2]
   + 1.321813702583313 x_pred[0,3] + 0.4068885445594788 x_pred[0,4]
   + 0.2560242116451263 x_pred[0,5] - 0.1054341346025467 x_pred[0,6]
   - 0.0643720552325249 x_pred[0,7] + 0.0216310154646635 x_pred[0,8]
   - 0.0641244128346443 x_pred[0,9] - 0.1001629531383514 x_pred[0,10]
   + 0.0961754396557808 x_pred[0,11] - 0.2447250634431839 x_pred[0,12]
   - 0.0552182756364346 x_pred[0,13] - 0.0425810031592846 x_pred[0,14]
   - 0.0224509313702583 x_pred[0,15] - 0.4289927184581757 x_pred[0,16]
   + 0.030984053388238 x_pred[0,17] - 0.0189176984131336 x_pred[0,18]
   + 0.0941040068864822 x_pred[0,19] - 0.0799482762813568 x_pred[0,20]
   - 0.0118680037558079 x_pred[0,21] - 0.0659857839345932 x_pred[0,22]
   - 0.00138818181585521 x_pred[0,23] - 0.1677782237529755 x_pred[0,24]
   + 0.0852585062384605 x_pred[0,25] + 0.5295386910438538 x_pred[0,26]
   + 0.1584657579660416 x_pred[0,27] + 0.1997291892766953 x_pred[0,28]
   + 0.1570311337709427 x_pred[0,29] + 0.0214680302888155 x_pred[0,30]
   - 0.1667614132165909 x_pred[0,31] - 0.2656138241291046 x_pred[0,32]
   - 0.2138866484165192 x_pred[0,33] + 0.1107231378555298 x_pred[0,34]
   + 0.2439880222082138 x_pred[0,35] - 0.0236181393265724 x_pred[0,36]
   + sequential.linear_0.act[0,60] = 0.1734496355056763
 sequential.linear_0.R167: 0.1230763122439384 x_pred[0,0]
   - 0.0206661447882652 x_pred[0,1] + 0.1752074211835861 x_pred[0,2]
   + 0.7361544966697693 x_pred[0,3] + 0.4341446757316589 x_pred[0,4]
   + 0.0268803294748068 x_pred[0,5] + 0.1252250522375107 x_pred[0,6]
   - 0.0850355476140976 x_pred[0,7] + 0.0351075120270252 x_pred[0,8]
   + 0.1582173705101013 x_pred[0,9] + 0.1230426728725433 x_pred[0,10]
   + 0.2096254825592041 x_pred[0,11] - 0.1071173697710037 x_pred[0,12]
   - 0.0908840298652649 x_pred[0,13] + 0.2282750308513641 x_pred[0,14]
   - 0.0076632178388536 x_pred[0,15] + 0.0289766285568476 x_pred[0,16]
   + 0.0438211001455784 x_pred[0,17] + 0.00674659665673971 x_pred[0,18]
   + 0.2098536640405655 x_pred[0,19] + 0.1304004937410355 x_pred[0,20]
   - 0.0394270345568657 x_pred[0,21] - 0.0112380031496286 x_pred[0,22]
   + 0.0468903966248035 x_pred[0,23] + 0.1377275884151459 x_pred[0,24]
   - 0.2406056374311447 x_pred[0,25] + 0.1655854880809784 x_pred[0,26]
   + 0.0235218666493893 x_pred[0,27] + 0.2048690170049667 x_pred[0,28]
   + 0.0899154916405678 x_pred[0,29] + 0.0627362802624702 x_pred[0,30]
   - 0.0690084546804428 x_pred[0,31] - 0.1299402862787247 x_pred[0,32]
   + 0.0724372416734695 x_pred[0,33] - 0.0262992698699236 x_pred[0,34]
   + 0.00918847694993019 x_pred[0,35] + 0.0685904324054718 x_pred[0,36]
   + sequential.linear_0.act[0,61] = -0.0147304022684693
 sequential.linear_0.R168: - 0.1712462157011032 x_pred[0,0]
   - 0.1993670910596848 x_pred[0,1] + 0.5573722720146179 x_pred[0,2]
   - 1.30604887008667 x_pred[0,3] - 0.7994650602340698 x_pred[0,4]
   - 0.1689558774232864 x_pred[0,5] - 0.0361603982746601 x_pred[0,6]
   - 0.0172886550426483 x_pred[0,7] + 0.0774781182408333 x_pred[0,8]
   - 0.00997445452958345 x_pred[0,9] - 0.0543993711471558 x_pred[0,10]
   + 0.0403684377670288 x_pred[0,11] - 0.1073441579937935 x_pred[0,12]
   + 0.0543122701346874 x_pred[0,13] + 0.0368776582181454 x_pred[0,14]
   + 0.1457243710756302 x_pred[0,15] + 0.0698451548814774 x_pred[0,16]
   + 0.0230012610554695 x_pred[0,17] + 0.0417440384626389 x_pred[0,18]
   - 0.0816357359290123 x_pred[0,19] + 0.0346934348344803 x_pred[0,20]
   + 0.0644092559814453 x_pred[0,21] - 0.0591051764786243 x_pred[0,22]
   - 0.0451799109578133 x_pred[0,23] - 0.0225134659558535 x_pred[0,24]
   - 0.0960721373558044 x_pred[0,25] - 0.2531984746456146 x_pred[0,26]
   + 0.0538038983941078 x_pred[0,27] - 0.1231001019477844 x_pred[0,28]
   + 0.0419857762753963 x_pred[0,29] + 0.0502992048859596 x_pred[0,30]
   - 0.063607819378376 x_pred[0,31] - 0.103572241961956 x_pred[0,32]
   - 0.0324105583131313 x_pred[0,33] + 0.0238512959331274 x_pred[0,34]
   - 0.1318791210651398 x_pred[0,35] + 0.0165221877396107 x_pred[0,36]
   + sequential.linear_0.act[0,62] = 0.2600347399711609
 sequential.linear_0.R169: - 0.0269784517586231 x_pred[0,0]
   + 0.1912827044725418 x_pred[0,1] + 0.2114187628030777 x_pred[0,2]
   + 0.1802354753017426 x_pred[0,3] + 0.1386789381504059 x_pred[0,4]
   - 0.0472176969051361 x_pred[0,5] + 0.0664189085364342 x_pred[0,6]
   - 0.052509393543005 x_pred[0,7] + 0.0741812139749527 x_pred[0,8]
   - 0.0678811892867088 x_pred[0,9] + 0.0652303099632263 x_pred[0,10]
   + 0.0501262657344341 x_pred[0,11] - 0.0205278322100639 x_pred[0,12]
   + 0.1203823611140251 x_pred[0,13] - 0.0902492851018906 x_pred[0,14]
   + 0.1479319632053375 x_pred[0,15] - 0.1143756210803986 x_pred[0,16]
   + 0.0583477318286896 x_pred[0,17] - 0.0231794193387032 x_pred[0,18]
   - 0.0274973884224892 x_pred[0,19] - 0.1524540185928345 x_pred[0,20]
   + 0.1424676775932312 x_pred[0,21] - 0.1063641607761383 x_pred[0,22]
   - 0.0384527370333672 x_pred[0,23] - 0.00178741535637528 x_pred[0,24]
   - 0.2442626655101776 x_pred[0,25] - 0.3037002980709076 x_pred[0,26]
   - 0.0486788041889668 x_pred[0,27] - 0.1108883768320084 x_pred[0,28]
   - 0.1186036467552185 x_pred[0,29] + 0.2340254932641983 x_pred[0,30]
   + 0.1648226082324982 x_pred[0,31] - 0.0820487961173058 x_pred[0,32]
   + 0.2131196707487106 x_pred[0,33] - 0.0171059798449278 x_pred[0,34]
   + 0.1264733523130417 x_pred[0,35] + 0.0353265255689621 x_pred[0,36]
   + sequential.linear_0.act[0,63] = -0.0926164537668228
 sequential.linear_0.R170: - 0.1142892092466354 x_pred[0,0]
   + 0.0492409989237785 x_pred[0,1] + 0.361806720495224 x_pred[0,2]
   + 1.276152729988098 x_pred[0,3] + 0.3998720049858093 x_pred[0,4]
   - 0.0786823704838753 x_pred[0,5] + 0.1320185363292694 x_pred[0,6]
   - 0.0191541854292154 x_pred[0,7] - 0.1496934592723846 x_pred[0,8]
   - 0.1481748670339584 x_pred[0,9] + 0.0921060964465141 x_pred[0,10]
   + 0.0102479113265872 x_pred[0,11] + 0.0800032243132591 x_pred[0,12]
   + 0.052349615842104 x_pred[0,13] - 0.136256992816925 x_pred[0,14]
   - 0.1614024937152863 x_pred[0,15] + 0.1500917375087738 x_pred[0,16]
   + 0.0065694535151124 x_pred[0,17] - 0.00785733200609684 x_pred[0,18]
   + 0.0490185581147671 x_pred[0,19] + 0.1058636903762817 x_pred[0,20]
   + 0.00381136033684015 x_pred[0,21] + 0.0554472059011459 x_pred[0,22]
   - 0.00467288494110107 x_pred[0,23] + 0.0419391207396984 x_pred[0,24]
   - 0.0904179438948631 x_pred[0,25] - 0.3147692978382111 x_pred[0,26]
   + 0.0293831340968609 x_pred[0,27] - 0.0947588905692101 x_pred[0,28]
   + 0.0509725920855999 x_pred[0,29] + 0.0784178078174591 x_pred[0,30]
   - 0.1247177794575691 x_pred[0,31] + 0.1199018880724907 x_pred[0,32]
   - 0.0999458804726601 x_pred[0,33] - 0.1964477002620697 x_pred[0,34]
   + 0.0539968647062778 x_pred[0,35] + 0.0904675498604774 x_pred[0,36]
   + sequential.linear_0.act[0,64] = 0.3617266416549683
 sequential.linear_0.R171: 0.1190918534994125 x_pred[0,0]
   + 0.7981485724449158 x_pred[0,1] + 0.1500839293003082 x_pred[0,2]
   - 2.911911249160767 x_pred[0,3] - 4.22121524810791 x_pred[0,4]
   + 0.0174272544682026 x_pred[0,5] - 3.80733e-05 x_pred[0,6]
   - 0.0995448008179665 x_pred[0,7] - 0.0229635536670685 x_pred[0,8]
   + 0.1089990958571434 x_pred[0,9] - 0.0328483134508133 x_pred[0,10]
   - 0.0966262966394424 x_pred[0,11] - 0.0034581646323204 x_pred[0,12]
   + 0.00752608571201563 x_pred[0,13] + 0.0393380373716354 x_pred[0,14]
   + 0.00200329045765102 x_pred[0,15] + 0.2651694715023041 x_pred[0,16]
   - 0.0179486330598593 x_pred[0,17] + 0.0351967327296734 x_pred[0,18]
   - 0.05347690731287 x_pred[0,19] - 0.017990717664361 x_pred[0,20]
   + 0.0320425592362881 x_pred[0,21] - 0.00844938494265079 x_pred[0,22]
   + 0.0136067857965827 x_pred[0,23] - 0.0335675068199635 x_pred[0,24]
   - 0.0264249034225941 x_pred[0,25] - 0.6215103268623352 x_pred[0,26]
   + 0.0277509745210409 x_pred[0,27] + 0.0224490519613028 x_pred[0,28]
   + 0.0499814189970493 x_pred[0,29] + 0.0646465718746185 x_pred[0,30]
   + 0.0247279480099678 x_pred[0,31] + 0.00226102187298238 x_pred[0,32]
   - 0.00873131770640612 x_pred[0,33] + 0.00892213732004166 x_pred[0,34]
   - 0.0375380851328373 x_pred[0,35] - 0.0398808568716049 x_pred[0,36]
   + sequential.linear_0.act[0,65] = -0.4805811941623688
 sequential.linear_0.R172: 0.179904505610466 x_pred[0,0]
   + 0.0319061130285263 x_pred[0,1] + 0.2732013165950775 x_pred[0,2]
   + 0.6980294585227966 x_pred[0,3] + 0.353763610124588 x_pred[0,4]
   - 0.0775303840637207 x_pred[0,5] + 0.1145454570651054 x_pred[0,6]
   + 0.1072142124176025 x_pred[0,7] - 0.0971283987164497 x_pred[0,8]
   - 0.0385086238384247 x_pred[0,9] + 0.00611537648364902 x_pred[0,10]
   + 0.0561144202947617 x_pred[0,11] + 0.0990878567099571 x_pred[0,12]
   - 0.1665790230035782 x_pred[0,13] + 0.0170226655900478 x_pred[0,14]
   + 0.0167027935385704 x_pred[0,15] - 0.0626375377178192 x_pred[0,16]
   + 0.0190125554800034 x_pred[0,17] + 0.0838567838072777 x_pred[0,18]
   - 0.0170740876346827 x_pred[0,19] - 0.1282245665788651 x_pred[0,20]
   - 0.0457139909267426 x_pred[0,21] + 0.1568528413772583 x_pred[0,22]
   - 0.0778690949082375 x_pred[0,23] + 0.1219067052006721 x_pred[0,24]
   + 0.1129622533917427 x_pred[0,25] + 0.1224503293633461 x_pred[0,26]
   - 0.1013452410697937 x_pred[0,27] - 0.1283372193574905 x_pred[0,28]
   + 0.0461717136204243 x_pred[0,29] - 0.1284895986318588 x_pred[0,30]
   - 0.0944091826677322 x_pred[0,31] - 0.0143410135060549 x_pred[0,32]
   + 0.091057226061821 x_pred[0,33] - 0.0120675908401608 x_pred[0,34]
   - 0.1313165426254272 x_pred[0,35] - 0.1849961429834366 x_pred[0,36]
   + sequential.linear_0.act[0,66] = 0.0599355734884739
 sequential.linear_0.R173: - 0.00889528635889292 x_pred[0,0]
   + 0.1314415335655212 x_pred[0,1] + 0.0153907937929034 x_pred[0,2]
   + 0.1627863049507141 x_pred[0,3] + 0.0783902853727341 x_pred[0,4]
   + 0.0911056846380234 x_pred[0,5] - 0.0392553694546223 x_pred[0,6]
   + 0.1096622571349144 x_pred[0,7] + 0.1166467815637589 x_pred[0,8]
   - 0.0249226782470942 x_pred[0,9] + 0.0888948887586594 x_pred[0,10]
   - 0.0278860758990049 x_pred[0,11] - 0.0456470660865307 x_pred[0,12]
   - 0.0445567145943642 x_pred[0,13] + 0.0683922916650772 x_pred[0,14]
   + 0.0736804604530334 x_pred[0,15] - 0.0424777418375015 x_pred[0,16]
   - 0.0441139005124569 x_pred[0,17] + 0.0613038912415504 x_pred[0,18]
   - 0.1011966690421104 x_pred[0,19] + 0.00661979103460908 x_pred[0,20]
   - 0.0567939877510071 x_pred[0,21] - 0.104100689291954 x_pred[0,22]
   - 0.045003779232502 x_pred[0,23] + 0.1293356716632843 x_pred[0,24]
   - 0.1173110455274582 x_pred[0,25] + 0.0769446566700935 x_pred[0,26]
   + 0.0374650880694389 x_pred[0,27] + 0.1834877133369446 x_pred[0,28]
   - 0.032567210495472 x_pred[0,29] + 0.0780277103185654 x_pred[0,30]
   - 0.0181606113910675 x_pred[0,31] + 0.0497547462582588 x_pred[0,32]
   + 0.1169595718383789 x_pred[0,33] - 0.0600862316787243 x_pred[0,34]
   + 0.0315245017409325 x_pred[0,35] - 0.1335143744945526 x_pred[0,36]
   + sequential.linear_0.act[0,67] = -0.0399228185415268
 sequential.linear_0.R174: 0.0151307880878448 x_pred[0,0]
   - 0.04552161693573 x_pred[0,1] + 0.1217392310500145 x_pred[0,2]
   - 0.0123827485367656 x_pred[0,3] + 0.0598829984664917 x_pred[0,4]
   - 0.2232077866792679 x_pred[0,5] - 0.1354878097772598 x_pred[0,6]
   + 0.1447764337062836 x_pred[0,7] + 0.1507836878299713 x_pred[0,8]
   + 0.0557134598493576 x_pred[0,9] + 0.1156250014901161 x_pred[0,10]
   + 0.1870052814483643 x_pred[0,11] + 0.00448857760056853 x_pred[0,12]
   - 0.0720233544707298 x_pred[0,13] - 0.00876148417592049 x_pred[0,14]
   + 0.0723878145217896 x_pred[0,15] - 0.0256267208606005 x_pred[0,16]
   - 0.1203728392720222 x_pred[0,17] + 0.0155429225414991 x_pred[0,18]
   + 0.0762367770075798 x_pred[0,19] + 0.083150826394558 x_pred[0,20]
   + 0.0647617802023888 x_pred[0,21] - 0.2677487730979919 x_pred[0,22]
   + 0.1328073740005493 x_pred[0,23] - 0.1229131668806076 x_pred[0,24]
   - 0.1629344671964645 x_pred[0,25] - 0.00428605498746037 x_pred[0,26]
   + 0.0223353430628777 x_pred[0,27] + 0.1097580045461655 x_pred[0,28]
   - 0.1510919630527496 x_pred[0,29] - 0.1712700575590134 x_pred[0,30]
   - 5.3355388808995485e-04 x_pred[0,31] - 0.1413167417049408 x_pred[0,32]
   + 0.1464542001485825 x_pred[0,33] - 0.0411366075277328 x_pred[0,34]
   + 0.0626855120062828 x_pred[0,35] - 0.0131022296845913 x_pred[0,36]
   + sequential.linear_0.act[0,68] = -0.0849650651216507
 sequential.linear_0.R175: - 0.026011461392045 x_pred[0,0]
   - 0.015979778021574 x_pred[0,1] + 0.2903318405151367 x_pred[0,2]
   - 0.0504798181355 x_pred[0,3] + 0.2079440951347351 x_pred[0,4]
   + 0.1030113324522972 x_pred[0,5] + 0.1239563226699829 x_pred[0,6]
   + 0.0257373806089163 x_pred[0,7] - 0.0942763388156891 x_pred[0,8]
   + 0.0962797403335571 x_pred[0,9] - 0.0406204722821712 x_pred[0,10]
   - 0.0506603196263313 x_pred[0,11] + 0.1090466231107712 x_pred[0,12]
   + 0.0178552661091089 x_pred[0,13] + 0.0697761252522469 x_pred[0,14]
   + 0.0875717997550964 x_pred[0,15] - 0.1303523778915405 x_pred[0,16]
   - 0.0498248375952244 x_pred[0,17] - 0.1536213159561157 x_pred[0,18]
   - 0.1649077087640762 x_pred[0,19] - 0.113170824944973 x_pred[0,20]
   - 0.0614657178521156 x_pred[0,21] + 0.2137597352266312 x_pred[0,22]
   + 0.1365662217140198 x_pred[0,23] + 0.1752013862133026 x_pred[0,24]
   + 0.0410909913480282 x_pred[0,25] - 0.220017671585083 x_pred[0,26]
   + 0.00752577278763056 x_pred[0,27] + 0.2080323994159698 x_pred[0,28]
   - 0.1350664794445038 x_pred[0,29] - 0.00706446776166558 x_pred[0,30]
   - 0.0400966145098209 x_pred[0,31] + 0.0404916927218437 x_pred[0,32]
   + 0.0376169718801975 x_pred[0,33] - 0.1259806901216507 x_pred[0,34]
   + 0.1968197077512741 x_pred[0,35] - 0.052214402705431 x_pred[0,36]
   + sequential.linear_0.act[0,69] = -0.1359920650720596
 sequential.linear_0.R176: - 0.0501770153641701 x_pred[0,0]
   + 0.00879157707095146 x_pred[0,1] + 0.1952496469020844 x_pred[0,2]
   + 0.1659340858459473 x_pred[0,3] - 0.011493650265038 x_pred[0,4]
   - 0.1591135561466217 x_pred[0,5] - 0.0849928334355354 x_pred[0,6]
   + 0.1182699277997017 x_pred[0,7] - 0.0211816504597664 x_pred[0,8]
   + 0.0554499216377735 x_pred[0,9] - 0.0713084265589714 x_pred[0,10]
   - 0.00378020294010639 x_pred[0,11] + 0.2060732543468475 x_pred[0,12]
   + 0.00676283473148942 x_pred[0,13] - 0.0468786545097828 x_pred[0,14]
   + 0.051389966160059 x_pred[0,15] - 0.03044817969203 x_pred[0,16]
   + 0.0274438131600618 x_pred[0,17] - 0.0163899604231119 x_pred[0,18]
   + 0.0408960022032261 x_pred[0,19] + 0.0290658492594957 x_pred[0,20]
   + 0.0119435423985124 x_pred[0,21] + 0.1027148216962814 x_pred[0,22]
   - 0.1478366255760193 x_pred[0,23] + 0.0241932664066553 x_pred[0,24]
   - 0.1818458437919617 x_pred[0,25] - 4.6807210310362279e-04 x_pred[0,26]
   + 0.0982747003436089 x_pred[0,27] - 0.0177842676639557 x_pred[0,28]
   + 0.00415589660406113 x_pred[0,29] - 0.1649752855300903 x_pred[0,30]
   - 0.00380183127708733 x_pred[0,31] - 0.0285823438316584 x_pred[0,32]
   - 0.0448084957897663 x_pred[0,33] - 0.0886755511164665 x_pred[0,34]
   + 0.0261037908494473 x_pred[0,35] - 0.1480423659086227 x_pred[0,36]
   + sequential.linear_0.act[0,70] = -0.1388263702392578
 sequential.linear_0.R177: 0.0704877078533173 x_pred[0,0]
   + 0.0802028700709343 x_pred[0,1] + 0.1366617232561111 x_pred[0,2]
   - 0.0420903638005257 x_pred[0,3] - 0.0240188427269459 x_pred[0,4]
   + 0.0371912345290184 x_pred[0,5] + 0.0290681477636099 x_pred[0,6]
   + 0.1092923283576965 x_pred[0,7] + 0.0733051002025604 x_pred[0,8]
   + 0.1024184450507164 x_pred[0,9] + 0.0946270599961281 x_pred[0,10]
   - 0.1060332879424095 x_pred[0,11] + 0.1508883684873581 x_pred[0,12]
   - 0.0281735174357891 x_pred[0,13] - 0.00391321908682585 x_pred[0,14]
   - 0.1183079406619072 x_pred[0,15] + 0.0683140084147453 x_pred[0,16]
   + 0.097202442586422 x_pred[0,17] - 0.0798512920737267 x_pred[0,18]
   - 0.0856782048940659 x_pred[0,19] + 0.0583268366754055 x_pred[0,20]
   - 0.0390387810766697 x_pred[0,21] + 0.0876507014036179 x_pred[0,22]
   - 0.0445275641977787 x_pred[0,23] - 0.0894560515880585 x_pred[0,24]
   + 0.0813024565577507 x_pred[0,25] + 0.0598984770476818 x_pred[0,26]
   + 0.054965503513813 x_pred[0,27] - 0.0527810975909233 x_pred[0,28]
   + 0.0295946542173624 x_pred[0,29] - 0.1293887346982956 x_pred[0,30]
   - 0.0420457497239113 x_pred[0,31] + 0.0486019514501095 x_pred[0,32]
   - 0.0820781588554382 x_pred[0,33] + 0.1482520997524261 x_pred[0,34]
   - 0.1288449168205261 x_pred[0,35] - 0.086656354367733 x_pred[0,36]
   + sequential.linear_0.act[0,71] = -0.00957890693098307
 sequential.linear_0.R178: 0.0924645140767097 x_pred[0,0]
   + 0.0298302955925465 x_pred[0,1] + 0.0419461391866207 x_pred[0,2]
   + 0.1607738435268402 x_pred[0,3] + 0.1343468427658081 x_pred[0,4]
   - 0.1089793741703033 x_pred[0,5] + 0.0757296606898308 x_pred[0,6]
   - 0.0494775883853436 x_pred[0,7] - 0.00218028435483575 x_pred[0,8]
   - 0.0211080592125654 x_pred[0,9] + 0.1383949220180511 x_pred[0,10]
   - 0.00282413372769952 x_pred[0,11] + 0.0845741704106331 x_pred[0,12]
   + 0.1322729140520096 x_pred[0,13] - 0.1603652089834213 x_pred[0,14]
   + 0.0558614432811737 x_pred[0,15] - 0.1154634356498718 x_pred[0,16]
   + 0.0505960397422314 x_pred[0,17] + 0.0107954367995262 x_pred[0,18]
   + 0.00827456079423428 x_pred[0,19] + 0.1068675667047501 x_pred[0,20]
   + 0.1341889202594757 x_pred[0,21] - 0.0171102862805128 x_pred[0,22]
   + 0.1301688998937607 x_pred[0,23] + 0.144325390458107 x_pred[0,24]
   + 0.1382935047149658 x_pred[0,25] + 0.1178465187549591 x_pred[0,26]
   - 0.0567903816699982 x_pred[0,27] - 0.0622071772813797 x_pred[0,28]
   + 0.0414175651967525 x_pred[0,29] + 0.0165917668491602 x_pred[0,30]
   + 0.155815064907074 x_pred[0,31] - 0.0181277114897966 x_pred[0,32]
   - 3.611106367316097e-04 x_pred[0,33] + 0.0607767477631569 x_pred[0,34]
   - 0.0926244482398033 x_pred[0,35] + 0.0753990039229393 x_pred[0,36]
   + sequential.linear_0.act[0,72] = -0.1355837285518646
 sequential.linear_0.R179: 0.1257196962833405 x_pred[0,0]
   + 0.0796584263443947 x_pred[0,1] + 0.0899489969015121 x_pred[0,2]
   + 0.0192987117916346 x_pred[0,3] + 0.0858706459403038 x_pred[0,4]
   - 0.0234066601842642 x_pred[0,5] + 0.0558384954929352 x_pred[0,6]
   + 0.1415646523237228 x_pred[0,7] + 0.1084539443254471 x_pred[0,8]
   - 0.0888519436120987 x_pred[0,9] - 0.0100329108536243 x_pred[0,10]
   + 0.0224206615239382 x_pred[0,11] + 0.0920175462961197 x_pred[0,12]
   + 0.0455648601055145 x_pred[0,13] - 0.099677674472332 x_pred[0,14]
   + 0.0230521261692047 x_pred[0,15] - 0.1342144757509232 x_pred[0,16]
   + 0.0317963548004627 x_pred[0,17] - 0.0847037732601166 x_pred[0,18]
   - 0.0300976056605577 x_pred[0,19] + 0.0398831777274609 x_pred[0,20]
   - 0.074449859559536 x_pred[0,21] - 0.00874619651585817 x_pred[0,22]
   - 0.0945470780134201 x_pred[0,23] + 0.1157616749405861 x_pred[0,24]
   + 0.0400202311575413 x_pred[0,25] - 0.0476440265774727 x_pred[0,26]
   + 0.1752424687147141 x_pred[0,27] + 0.1430390030145645 x_pred[0,28]
   - 0.1742002665996552 x_pred[0,29] - 0.1194525882601738 x_pred[0,30]
   + 0.0817070305347443 x_pred[0,31] - 0.1116460934281349 x_pred[0,32]
   + 0.1449974328279495 x_pred[0,33] + 0.1035813465714455 x_pred[0,34]
   + 0.0829617828130722 x_pred[0,35] + 0.1097177341580391 x_pred[0,36]
   + sequential.linear_0.act[0,73] = -0.0516064614057541
 sequential.linear_0.R180: - 0.0439007133245468 x_pred[0,0]
   + 0.2125774919986725 x_pred[0,1] + 0.2031981647014618 x_pred[0,2]
   + 3.217397689819336 x_pred[0,3] + 1.040200710296631 x_pred[0,4]
   + 0.0654207691550255 x_pred[0,5] - 0.00452812248840928 x_pred[0,6]
   + 0.0411997586488724 x_pred[0,7] + 0.0618277713656425 x_pred[0,8]
   - 0.00578173249959946 x_pred[0,9] - 0.0248273555189371 x_pred[0,10]
   - 0.0556175448000431 x_pred[0,11] - 0.0337526649236679 x_pred[0,12]
   - 0.0256147589534521 x_pred[0,13] - 0.0528333485126495 x_pred[0,14]
   + 0.00930219143629074 x_pred[0,15] + 0.3237995505332947 x_pred[0,16]
   - 0.0013477758038789 x_pred[0,17] - 0.0221901275217533 x_pred[0,18]
   - 0.0252773873507977 x_pred[0,19] - 0.1435286998748779 x_pred[0,20]
   + 0.1022020801901817 x_pred[0,21] - 0.0553100593388081 x_pred[0,22]
   - 0.0303713548928499 x_pred[0,23] - 0.0284465942531824 x_pred[0,24]
   - 0.0426902063190937 x_pred[0,25] - 0.3350848257541656 x_pred[0,26]
   + 0.0446786060929298 x_pred[0,27] + 0.1579837650060654 x_pred[0,28]
   - 0.0423517934978008 x_pred[0,29] + 0.0841240808367729 x_pred[0,30]
   + 0.00864448305219412 x_pred[0,31] - 0.0939525216817856 x_pred[0,32]
   - 0.0942303165793419 x_pred[0,33] + 0.00869184546172619 x_pred[0,34]
   + 0.1281222701072693 x_pred[0,35] - 0.0834284126758575 x_pred[0,36]
   + sequential.linear_0.act[0,74] = 0.3415424525737762
 sequential.linear_0.R181: 0.0654130727052689 x_pred[0,0]
   + 0.1119342297315598 x_pred[0,1] + 0.0243030767887831 x_pred[0,2]
   - 0.0749924704432487 x_pred[0,3] + 0.0323830842971802 x_pred[0,4]
   - 0.1557382643222809 x_pred[0,5] + 0.1088634431362152 x_pred[0,6]
   - 0.1790251284837723 x_pred[0,7] + 0.0640387982130051 x_pred[0,8]
   + 0.074288472533226 x_pred[0,9] - 0.0423420332372189 x_pred[0,10]
   + 0.0842209979891777 x_pred[0,11] - 0.0781708136200905 x_pred[0,12]
   - 0.0735313594341278 x_pred[0,13] - 0.2018103897571564 x_pred[0,14]
   + 0.05973045155406 x_pred[0,15] - 0.0535620152950287 x_pred[0,16]
   + 0.0548419058322906 x_pred[0,17] + 0.0570090301334858 x_pred[0,18]
   + 0.2131726443767548 x_pred[0,19] - 0.099825419485569 x_pred[0,20]
   + 0.00347090326249599 x_pred[0,21] + 0.0869764089584351 x_pred[0,22]
   - 0.0306726582348347 x_pred[0,23] - 0.061933770775795 x_pred[0,24]
   + 0.0620860941708088 x_pred[0,25] - 0.064683198928833 x_pred[0,26]
   - 0.104088194668293 x_pred[0,27] - 0.1330358982086182 x_pred[0,28]
   - 0.0718888565897942 x_pred[0,29] - 0.14053675532341 x_pred[0,30]
   + 0.00700811622664332 x_pred[0,31] + 0.100237563252449 x_pred[0,32]
   - 0.0053818142041564 x_pred[0,33] + 0.0936421826481819 x_pred[0,34]
   - 0.1996806561946869 x_pred[0,35] + 0.1993869841098785 x_pred[0,36]
   + sequential.linear_0.act[0,75] = -0.1685636788606644
 sequential.linear_0.R182: 0.0891074165701866 x_pred[0,0]
   + 0.0831445977091789 x_pred[0,1] + 0.0701732188463211 x_pred[0,2]
   - 0.0731926783919334 x_pred[0,3] + 0.1296684890985489 x_pred[0,4]
   - 0.0201516337692738 x_pred[0,5] - 0.0996031984686852 x_pred[0,6]
   + 0.0578450076282024 x_pred[0,7] + 0.2190420478582382 x_pred[0,8]
   - 0.1567804217338562 x_pred[0,9] - 0.0133982012048364 x_pred[0,10]
   + 0.0715934112668037 x_pred[0,11] - 7.1596773341298103e-04 x_pred[0,12]
   + 0.0595847927033901 x_pred[0,13] - 0.1417426615953445 x_pred[0,14]
   - 0.0718067958950996 x_pred[0,15] - 0.1290649473667145 x_pred[0,16]
   - 0.1983001232147217 x_pred[0,17] + 0.1012335270643234 x_pred[0,18]
   + 0.1041765362024307 x_pred[0,19] - 0.0698033794760704 x_pred[0,20]
   + 0.0375183261930943 x_pred[0,21] - 0.0591104216873646 x_pred[0,22]
   - 0.1839153170585632 x_pred[0,23] - 0.0501170381903648 x_pred[0,24]
   - 0.187588095664978 x_pred[0,25] + 0.0553102381527424 x_pred[0,26]
   + 0.1197713017463684 x_pred[0,27] - 0.1014049649238586 x_pred[0,28]
   + 0.0490464232861996 x_pred[0,29] - 0.0658562779426575 x_pred[0,30]
   - 0.0708241686224937 x_pred[0,31] - 0.0733556970953941 x_pred[0,32]
   - 0.0112021248787642 x_pred[0,33] + 0.0521798729896545 x_pred[0,34]
   + 0.150675892829895 x_pred[0,35] + 0.1696902811527252 x_pred[0,36]
   + sequential.linear_0.act[0,76] = -0.0640922263264656
 sequential.linear_0.R183: 0.11962029337883 x_pred[0,0]
   + 0.0575753338634968 x_pred[0,1] + 0.3014957308769226 x_pred[0,2]
   + 0.5645410418510437 x_pred[0,3] + 0.333601713180542 x_pred[0,4]
   + 0.1070313155651093 x_pred[0,5] - 0.004024479072541 x_pred[0,6]
   + 0.0805347189307213 x_pred[0,7] + 0.0357636176049709 x_pred[0,8]
   - 0.0133899236097932 x_pred[0,9] - 0.15085469186306 x_pred[0,10]
   - 0.1522033214569092 x_pred[0,11] + 0.0541046820580959 x_pred[0,12]
   - 0.0586469098925591 x_pred[0,13] + 0.00202644243836403 x_pred[0,14]
   - 0.125047504901886 x_pred[0,15] + 0.0554645732045174 x_pred[0,16]
   + 3.2728782389312983e-04 x_pred[0,17] + 0.0858693942427635 x_pred[0,18]
   - 0.0952500030398369 x_pred[0,19] + 0.1023598164319992 x_pred[0,20]
   + 0.0107198292389512 x_pred[0,21] - 0.0989067554473877 x_pred[0,22]
   + 0.092757485806942 x_pred[0,23] - 0.0887725055217743 x_pred[0,24]
   + 0.0495872907340527 x_pred[0,25] + 0.0258910562843084 x_pred[0,26]
   - 0.1406111270189285 x_pred[0,27] - 0.1030898317694664 x_pred[0,28]
   + 0.1482212096452713 x_pred[0,29] - 0.1358730643987656 x_pred[0,30]
   + 0.0663610026240349 x_pred[0,31] - 0.0104222595691681 x_pred[0,32]
   + 0.1141586601734161 x_pred[0,33] - 0.0788215026259422 x_pred[0,34]
   + 0.0315265022218227 x_pred[0,35] + 0.0493289940059185 x_pred[0,36]
   + sequential.linear_0.act[0,77] = 0.0789553672075272
 sequential.linear_0.R184: 0.1331750750541687 x_pred[0,0]
   + 0.081128291785717 x_pred[0,1] + 0.2738215029239655 x_pred[0,2]
   + 0.7631630301475525 x_pred[0,3] + 0.3672476410865784 x_pred[0,4]
   - 0.1402489095926285 x_pred[0,5] + 0.1322385370731354 x_pred[0,6]
   - 0.1636098325252533 x_pred[0,7] + 0.1210625991225243 x_pred[0,8]
   - 0.094464585185051 x_pred[0,9] + 0.0920968279242516 x_pred[0,10]
   - 0.1588307321071625 x_pred[0,11] - 0.0764289051294327 x_pred[0,12]
   + 0.0748391002416611 x_pred[0,13] + 0.0591893941164017 x_pred[0,14]
   - 0.1206648126244545 x_pred[0,15] - 0.1329890787601471 x_pred[0,16]
   + 0.0824291855096817 x_pred[0,17] - 0.1173516660928726 x_pred[0,18]
   - 0.00973451416939497 x_pred[0,19] + 0.1484645158052444 x_pred[0,20]
   + 0.1100037395954132 x_pred[0,21] + 0.1306636333465576 x_pred[0,22]
   - 0.066661149263382 x_pred[0,23] - 1.7700069292914122e-04 x_pred[0,24]
   - 0.1243675053119659 x_pred[0,25] + 0.2855645418167114 x_pred[0,26]
   + 0.0673157945275307 x_pred[0,27] + 0.00390723347663879 x_pred[0,28]
   + 0.1311406493186951 x_pred[0,29] + 0.0301171895116568 x_pred[0,30]
   + 0.089299701154232 x_pred[0,31] + 0.0628858879208565 x_pred[0,32]
   + 0.0800746083259583 x_pred[0,33] + 0.1325933337211609 x_pred[0,34]
   - 0.00965792406350374 x_pred[0,35] - 0.1023189052939415 x_pred[0,36]
   + sequential.linear_0.act[0,78] = 0.0509535409510136
 sequential.linear_0.R185: - 0.2473425269126892 x_pred[0,0]
   - 0.1214044913649559 x_pred[0,1] + 0.566019594669342 x_pred[0,2]
   - 0.8596454858779907 x_pred[0,3] - 0.8852627873420715 x_pred[0,4]
   + 0.0593142434954643 x_pred[0,5] - 0.0025572 x_pred[0,6]
   + 0.0112820249050856 x_pred[0,7] + 0.0678209960460663 x_pred[0,8]
   - 0.0170903373509645 x_pred[0,9] + 0.1036155968904495 x_pred[0,10]
   - 0.0562292598187923 x_pred[0,11] + 0.0437167137861252 x_pred[0,12]
   + 0.0723244398832321 x_pred[0,13] + 0.0290599577128887 x_pred[0,14]
   + 0.0487474352121353 x_pred[0,15] - 0.0459459312260151 x_pred[0,16]
   - 0.074715331196785 x_pred[0,17] - 0.0805529803037643 x_pred[0,18]
   + 0.1066752970218658 x_pred[0,19] + 0.0537229217588902 x_pred[0,20]
   + 0.000812181 x_pred[0,21] + 0.0682040154933929 x_pred[0,22]
   - 0.0155295440927148 x_pred[0,23] + 0.1062918901443481 x_pred[0,24]
   + 0.1520767509937286 x_pred[0,25] - 0.245622843503952 x_pred[0,26]
   - 5.1771476864814758e-04 x_pred[0,27] + 0.0965192094445229 x_pred[0,28]
   - 0.0802969112992287 x_pred[0,29] - 0.028158450499177 x_pred[0,30]
   + 0.0663710832595825 x_pred[0,31] - 0.0562149956822395 x_pred[0,32]
   + 0.0982133522629738 x_pred[0,33] + 0.1217904388904572 x_pred[0,34]
   + 0.00975139066576958 x_pred[0,35] + 0.0264457333832979 x_pred[0,36]
   + sequential.linear_0.act[0,79] = 0.345984160900116
 sequential.linear_0.R186: - 0.0373156443238258 x_pred[0,0]
   - 0.0486181266605854 x_pred[0,1] + 0.0835744366049767 x_pred[0,2]
   + 0.2877120673656464 x_pred[0,3] + 0.1175483167171478 x_pred[0,4]
   - 0.0761658251285553 x_pred[0,5] - 0.0064834114164114 x_pred[0,6]
   + 0.0143274022266269 x_pred[0,7] + 0.0795333087444305 x_pred[0,8]
   - 0.0832786113023758 x_pred[0,9] + 0.1106654554605484 x_pred[0,10]
   + 0.0450437106192112 x_pred[0,11] + 0.1814061254262924 x_pred[0,12]
   - 0.0650021731853485 x_pred[0,13] - 0.1032294780015945 x_pred[0,14]
   + 0.0362699665129185 x_pred[0,15] + 0.0515925958752632 x_pred[0,16]
   - 0.1893211454153061 x_pred[0,17] + 0.0770505964756012 x_pred[0,18]
   - 0.1707960963249207 x_pred[0,19] + 0.1817706227302551 x_pred[0,20]
   + 0.1672541797161102 x_pred[0,21] + 0.00545566249638796 x_pred[0,22]
   - 0.0807591825723648 x_pred[0,23] - 0.0272813066840172 x_pred[0,24]
   + 0.0389536432921886 x_pred[0,25] - 0.0125087201595306 x_pred[0,26]
   - 0.0171306971460581 x_pred[0,27] + 0.1489575356245041 x_pred[0,28]
   + 0.0767178982496262 x_pred[0,29] + 0.0868853032588959 x_pred[0,30]
   + 0.1438027918338776 x_pred[0,31] - 0.0147149860858917 x_pred[0,32]
   - 0.0459525249898434 x_pred[0,33] - 0.1925213038921356 x_pred[0,34]
   + 0.0844085067510605 x_pred[0,35] + 0.0908856317400932 x_pred[0,36]
   + sequential.linear_0.act[0,80] = -0.2065817713737488
 sequential.linear_0.R187: 0.1051856800913811 x_pred[0,0]
   - 0.0347967594861984 x_pred[0,1] + 0.1645950824022293 x_pred[0,2]
   + 1.818526864051819 x_pred[0,3] + 0.5628558993339539 x_pred[0,4]
   + 0.0117648225277662 x_pred[0,5] - 0.0697302669286728 x_pred[0,6]
   - 0.0957074910402298 x_pred[0,7] - 0.0817860588431358 x_pred[0,8]
   + 0.1076568514108658 x_pred[0,9] + 0.1204268857836723 x_pred[0,10]
   + 0.1475695073604584 x_pred[0,11] - 0.1613770574331284 x_pred[0,12]
   + 0.079469345510006 x_pred[0,13] - 0.0234509482979774 x_pred[0,14]
   - 0.1034848019480705 x_pred[0,15] + 0.0736161470413208 x_pred[0,16]
   - 0.1147915497422218 x_pred[0,17] - 0.0780220702290535 x_pred[0,18]
   - 0.0583672039210796 x_pred[0,19] + 0.0337177254259586 x_pred[0,20]
   - 0.0638969913125038 x_pred[0,21] + 0.1118084043264389 x_pred[0,22]
   + 0.00699563464149833 x_pred[0,23] + 0.0158242359757423 x_pred[0,24]
   + 0.0669864118099213 x_pred[0,25] + 0.1610248535871506 x_pred[0,26]
   + 0.1059747636318207 x_pred[0,27] + 0.1165206879377365 x_pred[0,28]
   - 0.0163038410246372 x_pred[0,29] - 0.0830060094594955 x_pred[0,30]
   - 0.0330008752644062 x_pred[0,31] + 0.00986302178353071 x_pred[0,32]
   + 0.1438978165388107 x_pred[0,33] - 0.0546138770878315 x_pred[0,34]
   - 0.1246604099869728 x_pred[0,35] + 0.0411269515752792 x_pred[0,36]
   + sequential.linear_0.act[0,81] = 0.00651578977704048
 sequential.linear_0.R188: 0.0485900789499283 x_pred[0,0]
   - 0.08729637414217 x_pred[0,1] - 0.00319067295640707 x_pred[0,2]
   + 0.0645028352737427 x_pred[0,3] + 0.1336362957954407 x_pred[0,4]
   - 0.1165537461638451 x_pred[0,5] - 0.0306582078337669 x_pred[0,6]
   + 0.1323584020137787 x_pred[0,7] - 0.0295993331819773 x_pred[0,8]
   + 0.0370363183319569 x_pred[0,9] - 0.0322518870234489 x_pred[0,10]
   - 0.0917734727263451 x_pred[0,11] - 0.0506442114710808 x_pred[0,12]
   - 0.0299152322113514 x_pred[0,13] + 0.1595181226730347 x_pred[0,14]
   - 0.0967622473835945 x_pred[0,15] - 0.00752025749534369 x_pred[0,16]
   - 0.1364800631999969 x_pred[0,17] - 0.041933361440897 x_pred[0,18]
   + 0.0488186664879322 x_pred[0,19] - 0.1023211106657982 x_pred[0,20]
   - 0.1188920438289642 x_pred[0,21] + 0.1251524686813354 x_pred[0,22]
   + 0.1402524411678314 x_pred[0,23] - 0.0776461586356163 x_pred[0,24]
   + 0.0909271389245987 x_pred[0,25] - 0.0883134454488754 x_pred[0,26]
   - 0.0508025623857975 x_pred[0,27] + 0.1298293769359589 x_pred[0,28]
   - 0.0855870470404625 x_pred[0,29] - 0.0812953263521194 x_pred[0,30]
   - 0.0266303513199091 x_pred[0,31] + 0.0666714981198311 x_pred[0,32]
   + 0.0715952143073082 x_pred[0,33] + 0.0702038630843163 x_pred[0,34]
   + 0.054905790835619 x_pred[0,35] + 0.1358670741319656 x_pred[0,36]
   + sequential.linear_0.act[0,82] = -0.133227676153183
 sequential.linear_0.R189: 0.2589654624462128 x_pred[0,0]
   - 0.0263270623981953 x_pred[0,1] - 0.7280179858207703 x_pred[0,2]
   + 1.937027215957642 x_pred[0,3] + 3.0862877368927 x_pred[0,4]
   + 0.1830861270427704 x_pred[0,5] + 0.0779638439416885 x_pred[0,6]
   - 0.1413063704967499 x_pred[0,7] - 0.2079300880432129 x_pred[0,8]
   + 0.2106558531522751 x_pred[0,9] + 0.0330835543572903 x_pred[0,10]
   - 0.1687224805355072 x_pred[0,11] - 0.3185116052627563 x_pred[0,12]
   + 0.0750054717063904 x_pred[0,13] + 0.1477241516113281 x_pred[0,14]
   - 0.0648490265011787 x_pred[0,15] + 0.353226363658905 x_pred[0,16]
   + 0.00717352516949177 x_pred[0,17] + 0.1060641631484032 x_pred[0,18]
   - 0.162530243396759 x_pred[0,19] - 0.116595558822155 x_pred[0,20]
   + 0.069400891661644 x_pred[0,21] + 0.1195037811994553 x_pred[0,22]
   + 0.1101380661129951 x_pred[0,23] + 0.0127606140449643 x_pred[0,24]
   + 0.0847714766860008 x_pred[0,25] - 1.08096444606781 x_pred[0,26]
   + 0.1895166486501694 x_pred[0,27] + 0.2092304229736328 x_pred[0,28]
   - 0.0428326465189457 x_pred[0,29] + 0.0358743853867054 x_pred[0,30]
   - 0.1218115910887718 x_pred[0,31] - 0.3053677678108215 x_pred[0,32]
   - 0.2822074592113495 x_pred[0,33] + 0.1899304836988449 x_pred[0,34]
   + 0.0868362486362457 x_pred[0,35] - 0.0350959673523903 x_pred[0,36]
   + sequential.linear_0.act[0,83] = -0.2369799315929413
 sequential.linear_0.R190: 0.0968127474188805 x_pred[0,0]
   + 0.0730521753430367 x_pred[0,1] + 0.1320724934339523 x_pred[0,2]
   + 0.1367333233356476 x_pred[0,3] + 0.0233441200107336 x_pred[0,4]
   - 0.1582307070493698 x_pred[0,5] + 0.087650291621685 x_pred[0,6]
   + 0.0581158474087715 x_pred[0,7] + 0.1642661839723587 x_pred[0,8]
   + 0.0364649593830109 x_pred[0,9] + 0.1987393498420715 x_pred[0,10]
   - 0.0649709552526474 x_pred[0,11] + 0.0988989695906639 x_pred[0,12]
   - 0.0494734309613705 x_pred[0,13] - 0.1136734262108803 x_pred[0,14]
   + 0.0851688534021378 x_pred[0,15] - 0.111810140311718 x_pred[0,16]
   - 0.1913805305957794 x_pred[0,17] + 0.0973656624555588 x_pred[0,18]
   + 0.0903148204088211 x_pred[0,19] + 0.0298018045723438 x_pred[0,20]
   - 0.1310377418994904 x_pred[0,21] + 0.123695082962513 x_pred[0,22]
   + 0.0653630793094635 x_pred[0,23] - 0.1320387125015259 x_pred[0,24]
   - 0.1383579224348068 x_pred[0,25] + 0.0248205959796906 x_pred[0,26]
   + 0.0573190189898014 x_pred[0,27] - 0.0703781843185425 x_pred[0,28]
   - 0.115501344203949 x_pred[0,29] + 0.02130595035851 x_pred[0,30]
   - 0.078854575753212 x_pred[0,31] - 0.0131170833483338 x_pred[0,32]
   + 0.0479295998811722 x_pred[0,33] - 0.1278570145368576 x_pred[0,34]
   + 0.1669845879077911 x_pred[0,35] + 0.040154617279768 x_pred[0,36]
   + sequential.linear_0.act[0,84] = -0.0148427011445165
 sequential.linear_0.R191: 0.0533085949718952 x_pred[0,0]
   - 0.066937729716301 x_pred[0,1] + 0.4683849215507507 x_pred[0,2]
   - 1.506313920021057 x_pred[0,3] - 0.6369566917419434 x_pred[0,4]
   - 0.0536971464753151 x_pred[0,5] - 0.0882465913891792 x_pred[0,6]
   + 0.0164176151156425 x_pred[0,7] + 0.0350166857242584 x_pred[0,8]
   - 0.0330921784043312 x_pred[0,9] - 0.1352479308843613 x_pred[0,10]
   + 0.1020044460892677 x_pred[0,11] - 0.0751747861504555 x_pred[0,12]
   + 0.1233190894126892 x_pred[0,13] + 0.0141039481386542 x_pred[0,14]
   - 0.1419750303030014 x_pred[0,15] + 0.1979824304580688 x_pred[0,16]
   + 0.102830208837986 x_pred[0,17] - 0.0116415377706289 x_pred[0,18]
   - 0.0189370661973953 x_pred[0,19] - 0.0702402889728546 x_pred[0,20]
   + 0.1022605821490288 x_pred[0,21] - 0.0959920063614845 x_pred[0,22]
   - 0.0582103580236435 x_pred[0,23] + 0.0361375212669373 x_pred[0,24]
   - 0.0241128001362085 x_pred[0,25] - 0.1650805324316025 x_pred[0,26]
   - 0.031266164034605 x_pred[0,27] + 0.0423865281045437 x_pred[0,28]
   + 0.0563956722617149 x_pred[0,29] + 0.0820582285523415 x_pred[0,30]
   - 0.0411516651511192 x_pred[0,31] - 0.0120887747034431 x_pred[0,32]
   + 0.1198725700378418 x_pred[0,33] + 0.0531468652188778 x_pred[0,34]
   - 0.1524967104196548 x_pred[0,35] - 0.0872470885515213 x_pred[0,36]
   + sequential.linear_0.act[0,85] = 0.1545388996601105
 sequential.linear_0.R192: 0.1480997353792191 x_pred[0,0]
   - 0.4074429273605347 x_pred[0,1] + 0.0897348150610924 x_pred[0,2]
   + 7.680750370025635 x_pred[0,3] + 0.6276934742927551 x_pred[0,4]
   + 0.0161519516259432 x_pred[0,5] + 0.0953502058982849 x_pred[0,6]
   - 0.027583310380578 x_pred[0,7] + 0.0822760164737701 x_pred[0,8]
   - 0.065774030983448 x_pred[0,9] + 0.0349465981125832 x_pred[0,10]
   + 0.0467578694224358 x_pred[0,11] + 0.0152948908507824 x_pred[0,12]
   - 5.7039124658331275e-04 x_pred[0,13] - 0.1965645849704742 x_pred[0,14]
   - 0.0800151228904724 x_pred[0,15] + 0.3807147145271301 x_pred[0,16]
   + 0.1826412975788116 x_pred[0,17] + 0.0249959342181683 x_pred[0,18]
   - 0.1198483258485794 x_pred[0,19] - 0.0499919503927231 x_pred[0,20]
   + 0.1566342264413834 x_pred[0,21] + 0.0612625405192375 x_pred[0,22]
   + 0.0979845747351646 x_pred[0,23] - 0.1746110171079636 x_pred[0,24]
   + 0.088770367205143 x_pred[0,25] - 0.5110973715782166 x_pred[0,26]
   - 0.0267161726951599 x_pred[0,27] - 0.0911790356040001 x_pred[0,28]
   + 0.0639029070734978 x_pred[0,29] - 0.0704195722937584 x_pred[0,30]
   + 0.0454690158367157 x_pred[0,31] + 0.0464301519095898 x_pred[0,32]
   + 0.1461194902658463 x_pred[0,33] + 0.0501729398965836 x_pred[0,34]
   + 0.0667567253112793 x_pred[0,35] + 0.1190807297825813 x_pred[0,36]
   + sequential.linear_0.act[0,86] = -0.2143471837043762
 sequential.linear_0.R193: 0.0686423629522324 x_pred[0,0]
   + 0.0878897979855537 x_pred[0,1] + 0.1798386871814728 x_pred[0,2]
   - 0.3544308543205261 x_pred[0,3] - 0.143122673034668 x_pred[0,4]
   - 0.1281181424856186 x_pred[0,5] - 0.0013501993380487 x_pred[0,6]
   - 0.1495322436094284 x_pred[0,7] + 0.1012461483478546 x_pred[0,8]
   - 0.00434741796925664 x_pred[0,9] + 0.0328955166041851 x_pred[0,10]
   + 0.0115662012249231 x_pred[0,11] + 0.0568682923913002 x_pred[0,12]
   - 0.1536686718463898 x_pred[0,13] + 0.00904281623661518 x_pred[0,14]
   + 0.0985084623098373 x_pred[0,15] - 0.0920968279242516 x_pred[0,16]
   + 0.0462770536541939 x_pred[0,17] + 0.00399846257641912 x_pred[0,18]
   + 0.0752207487821579 x_pred[0,19] - 0.0568350702524185 x_pred[0,20]
   + 0.0448201894760132 x_pred[0,21] - 0.0551042668521404 x_pred[0,22]
   + 0.0104077719151974 x_pred[0,23] - 0.1907889842987061 x_pred[0,24]
   + 0.0305290427058935 x_pred[0,25] + 0.0939566940069199 x_pred[0,26]
   + 6.0569768538698554e-04 x_pred[0,27] - 0.0528709255158901 x_pred[0,28]
   - 0.1041011661291122 x_pred[0,29] - 0.0202259086072445 x_pred[0,30]
   - 0.1015868335962296 x_pred[0,31] - 0.0284857675433159 x_pred[0,32]
   + 0.0642472133040428 x_pred[0,33] - 0.0253785382956266 x_pred[0,34]
   + 0.1384179890155792 x_pred[0,35] + 0.0924064964056015 x_pred[0,36]
   + sequential.linear_0.act[0,87] = -0.00124793092254549
 sequential.linear_0.R194: 0.1430679559707642 x_pred[0,0]
   + 0.143814891576767 x_pred[0,1] - 0.7396638989448547 x_pred[0,2]
   + 1.840311169624329 x_pred[0,3] + 3.136641025543213 x_pred[0,4]
   - 0.0198155380785465 x_pred[0,5] + 0.0896002128720284 x_pred[0,6]
   - 0.0707104653120041 x_pred[0,7] + 0.0387397296726704 x_pred[0,8]
   + 0.0374016724526882 x_pred[0,9] - 0.1112658604979515 x_pred[0,10]
   + 0.0155493672937155 x_pred[0,11] + 0.00521107809618115 x_pred[0,12]
   - 0.0349599085748196 x_pred[0,13] + 0.0717741847038269 x_pred[0,14]
   - 0.0208788085728884 x_pred[0,15] + 0.0874841958284378 x_pred[0,16]
   + 0.063902884721756 x_pred[0,17] - 0.0324507020413876 x_pred[0,18]
   + 0.00843645352870226 x_pred[0,19] + 0.0278656519949436 x_pred[0,20]
   + 0.048639852553606 x_pred[0,21] - 0.0168005805462599 x_pred[0,22]
   - 0.0405862852931023 x_pred[0,23] - 0.00262734317220747 x_pred[0,24]
   - 0.0404342636466026 x_pred[0,25] - 0.2086893022060394 x_pred[0,26]
   - 0.0495288595557213 x_pred[0,27] + 0.1001739427447319 x_pred[0,28]
   - 0.0131819127127528 x_pred[0,29] + 0.0230904873460531 x_pred[0,30]
   + 0.02884142100811 x_pred[0,31] - 0.0414122492074966 x_pred[0,32]
   - 0.0487765930593014 x_pred[0,33] - 0.0180664155632257 x_pred[0,34]
   + 0.0674111768603325 x_pred[0,35] - 0.0779916495084763 x_pred[0,36]
   + sequential.linear_0.act[0,88] = -0.0549076534807682
 sequential.linear_0.R195: - 0.0782621055841446 x_pred[0,0]
   + 0.0662403777241707 x_pred[0,1] - 0.0677205994725227 x_pred[0,2]
   + 0.064122661948204 x_pred[0,3] - 0.0194199755787849 x_pred[0,4]
   - 0.1225245520472527 x_pred[0,5] + 6.4707529963925481e-04 x_pred[0,6]
   + 0.1143174320459366 x_pred[0,7] + 0.00615468109026551 x_pred[0,8]
   - 0.0534861832857132 x_pred[0,9] - 0.1223200187087059 x_pred[0,10]
   - 0.0609868541359901 x_pred[0,11] + 0.1798141449689865 x_pred[0,12]
   + 0.0376611948013306 x_pred[0,13] + 0.0109052862972021 x_pred[0,14]
   - 0.0250840075314045 x_pred[0,15] - 0.0974075198173523 x_pred[0,16]
   - 0.1145064979791641 x_pred[0,17] - 0.1191259920597076 x_pred[0,18]
   - 0.0181471183896065 x_pred[0,19] + 0.1723039448261261 x_pred[0,20]
   + 0.0955950915813446 x_pred[0,21] - 0.0044725751504302 x_pred[0,22]
   + 0.1981771141290665 x_pred[0,23] + 0.0691076964139938 x_pred[0,24]
   + 0.020218612626195 x_pred[0,25] + 0.0982062444090843 x_pred[0,26]
   + 0.1743858754634857 x_pred[0,27] - 0.1230249404907227 x_pred[0,28]
   - 0.1103057339787483 x_pred[0,29] - 0.0586084127426147 x_pred[0,30]
   + 0.0705923512578011 x_pred[0,31] - 0.1668741703033447 x_pred[0,32]
   + 0.0382988005876541 x_pred[0,33] - 0.0415150262415409 x_pred[0,34]
   + 0.1332278847694397 x_pred[0,35] - 0.0461104102432728 x_pred[0,36]
   + sequential.linear_0.act[0,89] = -0.1319546699523926
 sequential.linear_0.R196: - 0.0561461336910725 x_pred[0,0]
   + 0.1853116154670715 x_pred[0,1] + 0.1562582701444626 x_pred[0,2]
   + 0.2121758013963699 x_pred[0,3] + 0.0547790639102459 x_pred[0,4]
   - 0.1814454048871994 x_pred[0,5] + 0.0533574558794498 x_pred[0,6]
   + 0.1014971137046814 x_pred[0,7] + 0.134754866361618 x_pred[0,8]
   + 0.1263534128665924 x_pred[0,9] - 0.0693933963775635 x_pred[0,10]
   + 0.2396007031202316 x_pred[0,11] - 0.1083298996090889 x_pred[0,12]
   - 0.0251481644809246 x_pred[0,13] - 0.0398935787379742 x_pred[0,14]
   - 0.0979954898357391 x_pred[0,15] - 0.1720447242259979 x_pred[0,16]
   - 0.071682870388031 x_pred[0,17] + 0.071845531463623 x_pred[0,18]
   - 0.1459997296333313 x_pred[0,19] - 0.1173674911260605 x_pred[0,20]
   + 0.1509809941053391 x_pred[0,21] - 0.1201815083622932 x_pred[0,22]
   - 0.0874379128217697 x_pred[0,23] + 0.1121685057878494 x_pred[0,24]
   + 0.038885124027729 x_pred[0,25] - 0.0622431635856628 x_pred[0,26]
   + 0.0696716606616974 x_pred[0,27] - 0.1600718200206757 x_pred[0,28]
   - 0.072770319879055 x_pred[0,29] - 0.0496742129325867 x_pred[0,30]
   + 0.0388562269508839 x_pred[0,31] + 0.105823740363121 x_pred[0,32]
   + 0.0280338730663061 x_pred[0,33] - 0.0174152608960867 x_pred[0,34]
   + 0.0511650890111923 x_pred[0,35] - 0.1598147302865982 x_pred[0,36]
   + sequential.linear_0.act[0,90] = -0.2126599252223969
 sequential.linear_0.R197: - 0.0783726945519447 x_pred[0,0]
   - 0.0194016620516777 x_pred[0,1] - 0.0511272922158241 x_pred[0,2]
   + 0.0360173210501671 x_pred[0,3] - 0.1033575832843781 x_pred[0,4]
   - 0.0378441959619522 x_pred[0,5] - 0.0267237406224012 x_pred[0,6]
   + 0.0218941327184439 x_pred[0,7] - 0.111504815518856 x_pred[0,8]
   + 0.0646828562021255 x_pred[0,9] - 0.0783914104104042 x_pred[0,10]
   - 0.00261181010864675 x_pred[0,11] - 0.114982470870018 x_pred[0,12]
   + 0.0912957563996315 x_pred[0,13] - 0.1655360013246536 x_pred[0,14]
   - 0.1085459142923355 x_pred[0,15] - 0.1117808893322945 x_pred[0,16]
   + 0.0690507888793945 x_pred[0,17] - 0.0564735382795334 x_pred[0,18]
   + 0.0768606960773468 x_pred[0,19] - 0.0892426818609238 x_pred[0,20]
   + 0.0410158596932888 x_pred[0,21] - 0.0405951403081417 x_pred[0,22]
   - 0.1534516215324402 x_pred[0,23] - 0.024283142760396 x_pred[0,24]
   - 0.2645292580127716 x_pred[0,25] + 0.0272908471524715 x_pred[0,26]
   + 0.0638403445482254 x_pred[0,27] + 0.1226536184549332 x_pred[0,28]
   - 0.145379438996315 x_pred[0,29] + 0.0786705240607262 x_pred[0,30]
   + 0.0744902044534683 x_pred[0,31] - 0.00315559864975512 x_pred[0,32]
   + 0.160217672586441 x_pred[0,33] + 0.082941360771656 x_pred[0,34]
   - 0.0587776638567448 x_pred[0,35] + 0.0787461325526237 x_pred[0,36]
   + sequential.linear_0.act[0,91] = -0.1568705439567566
 sequential.linear_0.R198: - 0.0329280979931355 x_pred[0,0]
   - 0.00789941474795341 x_pred[0,1] + 0.1461332142353058 x_pred[0,2]
   + 0.7221786379814148 x_pred[0,3] + 0.383213222026825 x_pred[0,4]
   + 0.1286645382642746 x_pred[0,5] - 0.1104859039187431 x_pred[0,6]
   - 0.0394347086548805 x_pred[0,7] - 0.0273741967976093 x_pred[0,8]
   - 0.0537907592952251 x_pred[0,9] - 0.01153180655092 x_pred[0,10]
   + 0.0925060883164406 x_pred[0,11] + 0.0571091435849667 x_pred[0,12]
   - 0.1484723091125488 x_pred[0,13] + 0.0136978030204773 x_pred[0,14]
   - 0.1370066106319427 x_pred[0,15] + 0.0971644744277 x_pred[0,16]
   + 0.1314804404973984 x_pred[0,17] - 0.0878521576523781 x_pred[0,18]
   - 0.0386456400156021 x_pred[0,19] - 0.0101111680269241 x_pred[0,20]
   + 0.1615096926689148 x_pred[0,21] - 0.0320744216442108 x_pred[0,22]
   - 0.0833825394511223 x_pred[0,23] - 0.0174707137048244 x_pred[0,24]
   - 0.0031928897369653 x_pred[0,25] - 0.0948329567909241 x_pred[0,26]
   - 0.0881407931447029 x_pred[0,27] + 0.1100949123501778 x_pred[0,28]
   + 0.1855320334434509 x_pred[0,29] + 0.0379685908555984 x_pred[0,30]
   - 0.0316437296569347 x_pred[0,31] - 0.1519023180007935 x_pred[0,32]
   - 0.1790536195039749 x_pred[0,33] + 0.0915348753333092 x_pred[0,34]
   - 0.0813150256872177 x_pred[0,35] + 0.0940819606184959 x_pred[0,36]
   + sequential.linear_0.act[0,92] = -0.0282078422605991
 sequential.linear_0.R199: 0.1486278921365738 x_pred[0,0]
   - 0.068595714867115 x_pred[0,1] + 0.1460023075342178 x_pred[0,2]
   + 1.447165250778198 x_pred[0,3] + 0.5283516645431519 x_pred[0,4]
   + 0.09635990858078 x_pred[0,5] - 0.1339482218027115 x_pred[0,6]
   - 0.2276671230792999 x_pred[0,7] - 0.0310927517712116 x_pred[0,8]
   + 0.0734363049268723 x_pred[0,9] + 0.0732667371630669 x_pred[0,10]
   + 0.1235439702868462 x_pred[0,11] - 0.0776241794228554 x_pred[0,12]
   - 0.0070857796818018 x_pred[0,13] + 0.000442653 x_pred[0,14]
   + 0.0354622974991798 x_pred[0,15] - 0.0247984025627375 x_pred[0,16]
   - 0.0583761297166348 x_pred[0,17] + 0.1255972534418106 x_pred[0,18]
   - 0.0325935706496239 x_pred[0,19] + 0.0655331090092659 x_pred[0,20]
   - 0.105781652033329 x_pred[0,21] - 0.0523005872964859 x_pred[0,22]
   + 0.1818917095661163 x_pred[0,23] - 0.0067312978208065 x_pred[0,24]
   - 0.0670936033129692 x_pred[0,25] + 0.2328601628541946 x_pred[0,26]
   + 0.1409387141466141 x_pred[0,27] - 0.00674359267577529 x_pred[0,28]
   - 0.0160631146281958 x_pred[0,29] + 0.0648743286728859 x_pred[0,30]
   + 0.0842317715287209 x_pred[0,31] - 0.1071225330233574 x_pred[0,32]
   - 0.1042824760079384 x_pred[0,33] - 0.0981933102011681 x_pred[0,34]
   - 0.0612905435264111 x_pred[0,35] + 0.00856377277523279 x_pred[0,36]
   + sequential.linear_0.act[0,93] = -0.0255399253219366
 sequential.linear_0.R200: 0.1111276894807816 x_pred[0,0]
   - 0.0290224514901638 x_pred[0,1] - 0.4583014845848083 x_pred[0,2]
   + 1.575404763221741 x_pred[0,3] + 2.594328880310059 x_pred[0,4]
   + 0.00485658505931497 x_pred[0,5] - 0.010600415058434 x_pred[0,6]
   + 0.1006790995597839 x_pred[0,7] + 0.1253041177988052 x_pred[0,8]
   - 0.0774349570274353 x_pred[0,9] + 0.0525985956192017 x_pred[0,10]
   + 0.0753311663866043 x_pred[0,11] + 0.00726581923663616 x_pred[0,12]
   - 0.00767500139772892 x_pred[0,13] - 0.0378319770097733 x_pred[0,14]
   + 0.0110179213806987 x_pred[0,15] + 0.2751806974411011 x_pred[0,16]
   + 0.049379825592041 x_pred[0,17] - 0.1039559617638588 x_pred[0,18]
   + 0.0668060705065727 x_pred[0,19] + 0.0308465845882893 x_pred[0,20]
   + 0.0185522921383381 x_pred[0,21] + 0.0553424581885338 x_pred[0,22]
   + 0.0115949269384146 x_pred[0,23] - 0.0100346114486456 x_pred[0,24]
   + 0.0670327991247177 x_pred[0,25] - 0.4844024181365967 x_pred[0,26]
   + 0.1024719551205635 x_pred[0,27] + 0.1947624534368515 x_pred[0,28]
   + 0.0321355201303959 x_pred[0,29] - 0.1205925270915031 x_pred[0,30]
   - 0.0422832034528255 x_pred[0,31] - 0.1042782738804817 x_pred[0,32]
   - 0.0507278479635715 x_pred[0,33] - 0.0914047434926033 x_pred[0,34]
   + 0.1224266886711121 x_pred[0,35] + 0.0247068032622337 x_pred[0,36]
   + sequential.linear_0.act[0,94] = -0.1044609844684601
 sequential.linear_0.R201: 0.3262621760368347 x_pred[0,0]
   + 0.1304436177015305 x_pred[0,1] - 1.023927569389343 x_pred[0,2]
   + 3.449416637420654 x_pred[0,3] + 6.359857082366943 x_pred[0,4]
   + 0.0443283766508102 x_pred[0,5] + 0.0158553794026375 x_pred[0,6]
   + 0.0482510030269623 x_pred[0,7] + 0.0212633684277534 x_pred[0,8]
   - 0.0234095882624388 x_pred[0,9] - 0.0505385026335716 x_pred[0,10]
   + 0.0554042868316174 x_pred[0,11] - 0.00922300759702921 x_pred[0,12]
   + 0.0135239074006677 x_pred[0,13] + 0.0243137907236814 x_pred[0,14]
   + 0.0435297340154648 x_pred[0,15] + 0.7439208626747131 x_pred[0,16]
   - 0.0463219471275806 x_pred[0,17] + 0.0200096890330315 x_pred[0,18]
   + 0.0029715639539063 x_pred[0,19] + 0.0733181089162827 x_pred[0,20]
   - 0.0084720179438591 x_pred[0,21] - 0.0591087453067303 x_pred[0,22]
   - 0.0255127530544996 x_pred[0,23] - 0.0376708991825581 x_pred[0,24]
   + 0.0226057805120945 x_pred[0,25] - 0.9980765581130981 x_pred[0,26]
   - 0.0805373713374138 x_pred[0,27] - 0.1390435695648193 x_pred[0,28]
   + 0.00430405139923096 x_pred[0,29] - 0.0186938364058733 x_pred[0,30]
   + 0.0253234002739191 x_pred[0,31] + 0.0588421709835529 x_pred[0,32]
   + 0.0571413822472095 x_pred[0,33] - 0.0236423946917057 x_pred[0,34]
   - 0.0187241621315479 x_pred[0,35] + 0.0690389573574066 x_pred[0,36]
   + sequential.linear_0.act[0,95] = -0.2024371176958084
 sequential.linear_0.R202: 0.00520947715267539 x_pred[0,0]
   - 0.0118295 x_pred[0,1] + 0.0141358263790607 x_pred[0,2]
   + 0.1350442618131638 x_pred[0,3] - 0.0254892595112324 x_pred[0,4]
   - 0.0846504494547844 x_pred[0,5] + 0.1077571511268616 x_pred[0,6]
   + 0.0402938984334469 x_pred[0,7] - 0.0273773595690727 x_pred[0,8]
   - 0.1569543033838272 x_pred[0,9] + 0.1888911724090576 x_pred[0,10]
   - 0.1272913962602615 x_pred[0,11] + 0.2704166769981384 x_pred[0,12]
   + 0.1672018319368362 x_pred[0,13] - 0.2608901560306549 x_pred[0,14]
   + 0.0393291004002094 x_pred[0,15] - 0.024774044752121 x_pred[0,16]
   - 0.0441349670290947 x_pred[0,17] + 0.1830118149518967 x_pred[0,18]
   + 0.1469224244356155 x_pred[0,19] - 0.0605524256825447 x_pred[0,20]
   + 0.00381966098211706 x_pred[0,21] + 0.1085225790739059 x_pred[0,22]
   - 0.1133873611688614 x_pred[0,23] + 0.1349165588617325 x_pred[0,24]
   - 0.021440751850605 x_pred[0,25] - 0.0647259876132011 x_pred[0,26]
   - 0.0286250058561563 x_pred[0,27] + 0.0280970465391874 x_pred[0,28]
   + 0.0669947415590286 x_pred[0,29] + 0.0791602432727814 x_pred[0,30]
   - 0.0780259966850281 x_pred[0,31] - 0.1417860090732574 x_pred[0,32]
   - 0.0807507038116455 x_pred[0,33] + 0.0497074387967587 x_pred[0,34]
   - 0.00249193771742284 x_pred[0,35] + 0.0234202798455954 x_pred[0,36]
   + sequential.linear_0.act[0,96] = -0.1669356226921082
 sequential.linear_0.R203: - 0.2364723086357117 x_pred[0,0]
   - 0.2114730626344681 x_pred[0,1] + 0.1558228433132172 x_pred[0,2]
   + 1.809188961982727 x_pred[0,3] + 0.6681455373764038 x_pred[0,4]
   + 0.1923631578683853 x_pred[0,5] + 0.0845829322934151 x_pred[0,6]
   - 0.0398539528250694 x_pred[0,7] - 0.0623598918318748 x_pred[0,8]
   + 0.0402079112827778 x_pred[0,9] + 0.1702411025762558 x_pred[0,10]
   - 0.0161333028227091 x_pred[0,11] + 0.1133499220013618 x_pred[0,12]
   - 0.0691023245453835 x_pred[0,13] + 0.0795157700777054 x_pred[0,14]
   + 5.0220248522236943e-04 x_pred[0,15] + 0.2906907796859741 x_pred[0,16]
   - 0.077612929046154 x_pred[0,17] + 0.1616741418838501 x_pred[0,18]
   - 0.0607342571020126 x_pred[0,19] + 0.00545782456174493 x_pred[0,20]
   - 0.0568536520004272 x_pred[0,21] + 0.0261793024837971 x_pred[0,22]
   - 0.0205069165676832 x_pred[0,23] + 0.0669955983757973 x_pred[0,24]
   + 0.0619849413633347 x_pred[0,25] - 0.4758693873882294 x_pred[0,26]
   - 0.1035346463322639 x_pred[0,27] + 0.0715838074684143 x_pred[0,28]
   + 0.0238360054790974 x_pred[0,29] + 0.00781256332993507 x_pred[0,30]
   - 0.1409281194210052 x_pred[0,31] + 0.1431918889284134 x_pred[0,32]
   + 0.131153479218483 x_pred[0,33] + 0.010970258153975 x_pred[0,34]
   + 0.0530182458460331 x_pred[0,35] - 0.146235778927803 x_pred[0,36]
   + sequential.linear_0.act[0,97] = -0.174435168504715
 sequential.linear_0.R204: - 0.2488167732954025 x_pred[0,0]
   - 0.0351479575037956 x_pred[0,1] + 0.1198651865124702 x_pred[0,2]
   + 0.9776270985603333 x_pred[0,3] + 0.5802426934242249 x_pred[0,4]
   - 0.00774219492450356 x_pred[0,5] - 0.1110913157463074 x_pred[0,6]
   + 0.00964591279625893 x_pred[0,7] - 0.0354230329394341 x_pred[0,8]
   + 0.1592584997415543 x_pred[0,9] - 0.0247938018292189 x_pred[0,10]
   - 0.1363905221223831 x_pred[0,11] - 0.1216378957033157 x_pred[0,12]
   + 0.0324586667120457 x_pred[0,13] + 0.0563717819750309 x_pred[0,14]
   + 0.0659231618046761 x_pred[0,15] + 0.3835026919841766 x_pred[0,16]
   + 0.1242409572005272 x_pred[0,17] + 0.0470755882561207 x_pred[0,18]
   + 0.0638828799128532 x_pred[0,19] - 0.0394787788391113 x_pred[0,20]
   - 0.1413009613752365 x_pred[0,21] + 0.0453349314630032 x_pred[0,22]
   + 0.1673054546117783 x_pred[0,23] - 0.0675036832690239 x_pred[0,24]
   + 0.178213506937027 x_pred[0,25] - 0.5857844352722168 x_pred[0,26]
   + 0.00431884964928031 x_pred[0,27] - 0.1430307030677795 x_pred[0,28]
   + 0.00621514581143856 x_pred[0,29] - 0.0930015295743942 x_pred[0,30]
   - 0.1239287182688713 x_pred[0,31] - 0.041261114180088 x_pred[0,32]
   - 0.032235074788332 x_pred[0,33] - 0.0439246445894241 x_pred[0,34]
   + 0.0595314390957355 x_pred[0,35] - 0.1992845833301544 x_pred[0,36]
   + sequential.linear_0.act[0,98] = -0.1597671508789062
 sequential.linear_0.R205: 0.0471300706267357 x_pred[0,0]
   + 0.160467118024826 x_pred[0,1] + 0.2639396190643311 x_pred[0,2]
   + 0.5621535181999207 x_pred[0,3] + 0.2943728864192963 x_pred[0,4]
   + 0.0203867219388485 x_pred[0,5] - 0.0399996750056744 x_pred[0,6]
   + 0.0494765043258667 x_pred[0,7] - 0.0126864239573479 x_pred[0,8]
   + 0.0576443672180176 x_pred[0,9] + 0.104937307536602 x_pred[0,10]
   - 0.0126686673611403 x_pred[0,11] - 0.0360592417418957 x_pred[0,12]
   - 0.1244644597172737 x_pred[0,13] + 0.1614207774400711 x_pred[0,14]
   + 0.059023592621088 x_pred[0,15] + 0.132446214556694 x_pred[0,16]
   - 0.0488423928618431 x_pred[0,17] + 0.0636529698967934 x_pred[0,18]
   - 0.0439741648733616 x_pred[0,19] - 0.0771960690617561 x_pred[0,20]
   + 0.0678470060229301 x_pred[0,21] + 0.0154702132567763 x_pred[0,22]
   + 0.05141431838274 x_pred[0,23] - 0.1691631972789764 x_pred[0,24]
   + 0.155855655670166 x_pred[0,25] + 0.0843801200389862 x_pred[0,26]
   - 0.1315891742706299 x_pred[0,27] + 0.0426257774233818 x_pred[0,28]
   + 0.1198495998978615 x_pred[0,29] + 0.1253898590803146 x_pred[0,30]
   + 0.1241622716188431 x_pred[0,31] - 0.1140804290771484 x_pred[0,32]
   + 0.1307591795921326 x_pred[0,33] - 0.0599365234375 x_pred[0,34]
   + 0.1003008410334587 x_pred[0,35] - 0.1013656035065651 x_pred[0,36]
   + sequential.linear_0.act[0,99] = -0.00444916728883982
 sequential.linear_0.R206: - 0.0230705682188272 x_pred[0,0]
   + 0.4177829325199127 x_pred[0,1] + 0.2310487627983093 x_pred[0,2]
   - 1.248430609703064 x_pred[0,3] - 1.242628812789917 x_pred[0,4]
   + 0.1276796162128448 x_pred[0,5] - 0.00477909110486507 x_pred[0,6]
   - 0.1457648128271103 x_pred[0,7] + 0.0394931770861149 x_pred[0,8]
   + 0.1036431565880775 x_pred[0,9] + 0.0226399637758732 x_pred[0,10]
   - 0.0998054817318916 x_pred[0,11] - 0.1204704344272614 x_pred[0,12]
   + 0.0839582830667496 x_pred[0,13] + 0.0374247319996357 x_pred[0,14]
   + 0.0689868852496147 x_pred[0,15] - 0.00230595353059471 x_pred[0,16]
   - 0.0615765377879143 x_pred[0,17] + 0.0260352026671171 x_pred[0,18]
   - 0.0528416745364666 x_pred[0,19] - 0.0672525614500046 x_pred[0,20]
   + 0.1251423209905624 x_pred[0,21] - 0.0425179116427898 x_pred[0,22]
   + 0.0112718576565385 x_pred[0,23] - 0.1055028289556503 x_pred[0,24]
   - 0.0593996085226536 x_pred[0,25] - 0.1510967016220093 x_pred[0,26]
   + 0.0732243359088898 x_pred[0,27] - 0.1624173820018768 x_pred[0,28]
   + 0.0835582166910172 x_pred[0,29] - 0.0217034406960011 x_pred[0,30]
   - 0.0270129945129156 x_pred[0,31] + 0.0791155695915222 x_pred[0,32]
   + 0.0651856511831284 x_pred[0,33] + 0.0669807121157646 x_pred[0,34]
   - 0.0803126320242882 x_pred[0,35] + 0.0799528136849403 x_pred[0,36]
   + sequential.linear_0.act[0,100] = -0.0284661389887333
 sequential.linear_0.R207: 0.0727008283138275 x_pred[0,0]
   + 0.1355469971895218 x_pred[0,1] - 0.00566326640546322 x_pred[0,2]
   + 0.0738420337438583 x_pred[0,3] + 0.1753669232130051 x_pred[0,4]
   - 0.0867113769054413 x_pred[0,5] - 0.0792681723833084 x_pred[0,6]
   - 0.0512232892215252 x_pred[0,7] + 0.0969337895512581 x_pred[0,8]
   - 0.2087411880493164 x_pred[0,9] - 0.0826473757624626 x_pred[0,10]
   - 0.00613846909254789 x_pred[0,11] - 0.0484010651707649 x_pred[0,12]
   - 0.0998772829771042 x_pred[0,13] - 0.1770014315843582 x_pred[0,14]
   + 0.1120956763625145 x_pred[0,15] - 0.1255457550287247 x_pred[0,16]
   + 0.0830039009451866 x_pred[0,17] + 0.1488551795482635 x_pred[0,18]
   - 0.0360691137611866 x_pred[0,19] - 0.0994154512882233 x_pred[0,20]
   + 0.0140837747603655 x_pred[0,21] - 0.0291969180107117 x_pred[0,22]
   + 0.1402936577796936 x_pred[0,23] + 0.0107587585225701 x_pred[0,24]
   - 0.0253035146743059 x_pred[0,25] - 0.1819328516721725 x_pred[0,26]
   - 0.047265537083149 x_pred[0,27] + 0.0440461374819279 x_pred[0,28]
   + 0.1339093297719955 x_pred[0,29] - 0.144837886095047 x_pred[0,30]
   - 0.0359230637550354 x_pred[0,31] - 0.1688724160194397 x_pred[0,32]
   + 0.1541942209005356 x_pred[0,33] - 0.1093490198254585 x_pred[0,34]
   - 0.0765818208456039 x_pred[0,35] - 0.00809731334447861 x_pred[0,36]
   + sequential.linear_0.act[0,101] = -0.2286473661661148
 sequential.linear_0.R208: 0.0814516395330429 x_pred[0,0]
   + 0.0657110810279846 x_pred[0,1] + 0.0811870843172073 x_pred[0,2]
   + 0.00640369206666946 x_pred[0,3] + 0.122453399002552 x_pred[0,4]
   + 0.0848980769515038 x_pred[0,5] + 0.0593281686306 x_pred[0,6]
   + 0.0692475438117981 x_pred[0,7] - 0.0818475112318993 x_pred[0,8]
   + 0.189894437789917 x_pred[0,9] - 0.0953492745757103 x_pred[0,10]
   + 0.146858736872673 x_pred[0,11] + 0.0989002585411072 x_pred[0,12]
   - 0.00903201941400766 x_pred[0,13] - 0.1462309211492538 x_pred[0,14]
   - 0.00397465378046036 x_pred[0,15] + 0.1673925966024399 x_pred[0,16]
   + 0.0517898686230183 x_pred[0,17] + 0.098477266728878 x_pred[0,18]
   - 0.0829450041055679 x_pred[0,19] - 0.155630961060524 x_pred[0,20]
   + 0.079384945333004 x_pred[0,21] - 0.0948294848203659 x_pred[0,22]
   + 0.0864806696772575 x_pred[0,23] + 0.1940595358610153 x_pred[0,24]
   - 0.2058566361665726 x_pred[0,25] + 0.1276999115943909 x_pred[0,26]
   - 0.1461570411920547 x_pred[0,27] + 0.114367887377739 x_pred[0,28]
   + 0.0341533422470093 x_pred[0,29] - 0.2281389832496643 x_pred[0,30]
   + 0.1888051182031631 x_pred[0,31] + 0.015181758441031 x_pred[0,32]
   + 0.1347320526838303 x_pred[0,33] + 0.0560600496828556 x_pred[0,34]
   - 0.0080914031714201 x_pred[0,35] + 0.1807991415262222 x_pred[0,36]
   + sequential.linear_0.act[0,102] = -0.0707369074225426
 sequential.linear_0.R209: - 0.071509949862957 x_pred[0,0]
   + 0.1046642363071442 x_pred[0,1] - 0.0905766636133194 x_pred[0,2]
   - 0.0696972757577896 x_pred[0,3] + 0.0521074309945107 x_pred[0,4]
   - 0.016526872292161 x_pred[0,5] - 0.1868836879730225 x_pred[0,6]
   + 0.0134843718260527 x_pred[0,7] + 0.0841836631298065 x_pred[0,8]
   - 0.0479132160544395 x_pred[0,9] + 0.0964553877711296 x_pred[0,10]
   + 0.1463917195796967 x_pred[0,11] - 0.1048907488584518 x_pred[0,12]
   + 0.0869565978646278 x_pred[0,13] - 0.0131640015169978 x_pred[0,14]
   + 0.1874805092811584 x_pred[0,15] - 0.151121586561203 x_pred[0,16]
   - 0.1021629124879837 x_pred[0,17] + 0.0831858217716217 x_pred[0,18]
   - 0.093215100467205 x_pred[0,19] + 0.0364046134054661 x_pred[0,20]
   - 0.0314828790724277 x_pred[0,21] - 0.0145883215591311 x_pred[0,22]
   + 0.0195837169885635 x_pred[0,23] - 0.0677471980452538 x_pred[0,24]
   - 0.0847251191735268 x_pred[0,25] - 0.0072410237044096 x_pred[0,26]
   + 0.0543998442590237 x_pred[0,27] + 0.0025341126602143 x_pred[0,28]
   - 0.2306625545024872 x_pred[0,29] + 0.0596618317067623 x_pred[0,30]
   + 0.1559165865182877 x_pred[0,31] + 0.1139213591814041 x_pred[0,32]
   + 0.0750625729560852 x_pred[0,33] + 0.0506921336054802 x_pred[0,34]
   + 0.0364481098949909 x_pred[0,35] + 0.00800440926104784 x_pred[0,36]
   + sequential.linear_0.act[0,103] = -0.1996243298053741
 sequential.linear_0.R210: 0.0426780246198177 x_pred[0,0]
   + 0.0633790343999863 x_pred[0,1] + 0.2700565457344055 x_pred[0,2]
   - 0.1144105717539787 x_pred[0,3] + 0.1729331463575363 x_pred[0,4]
   - 0.026825925335288 x_pred[0,5] - 0.1167465597391129 x_pred[0,6]
   - 0.19758141040802 x_pred[0,7] - 0.1279827207326889 x_pred[0,8]
   - 0.0364579372107983 x_pred[0,9] - 0.077252596616745 x_pred[0,10]
   + 0.1195845752954483 x_pred[0,11] - 0.0631006360054016 x_pred[0,12]
   - 0.0955189317464828 x_pred[0,13] - 0.1282896250486374 x_pred[0,14]
   - 0.1246978268027306 x_pred[0,15] - 0.0804240182042122 x_pred[0,16]
   - 0.0789371281862259 x_pred[0,17] + 0.0400108844041824 x_pred[0,18]
   - 0.1001396402716637 x_pred[0,19] + 0.0801467671990395 x_pred[0,20]
   - 0.1230482012033463 x_pred[0,21] + 0.031927578151226 x_pred[0,22]
   + 0.0650953054428101 x_pred[0,23] - 0.0045309248380363 x_pred[0,24]
   + 0.0288258641958237 x_pred[0,25] - 0.2372050583362579 x_pred[0,26]
   - 0.1063720509409904 x_pred[0,27] - 0.0381259545683861 x_pred[0,28]
   - 0.0366254262626171 x_pred[0,29] - 0.1120160147547722 x_pred[0,30]
   - 0.0598170235753059 x_pred[0,31] - 0.0801357328891754 x_pred[0,32]
   - 0.0338148586452007 x_pred[0,33] - 0.0179148353636265 x_pred[0,34]
   + 0.00998986978083849 x_pred[0,35] - 0.0488471239805222 x_pred[0,36]
   + sequential.linear_0.act[0,104] = 0.1375403106212616
 sequential.linear_0.R211: - 0.0608948692679405 x_pred[0,0]
   + 0.1561294794082642 x_pred[0,1] + 0.094957560300827 x_pred[0,2]
   - 0.5689753293991089 x_pred[0,3] - 0.6011480093002319 x_pred[0,4]
   - 0.0414250753819942 x_pred[0,5] - 0.0446515530347824 x_pred[0,6]
   - 0.0297428537160158 x_pred[0,7] - 0.0357804298400879 x_pred[0,8]
   + 0.0543070733547211 x_pred[0,9] - 0.0695814937353134 x_pred[0,10]
   - 0.0824267417192459 x_pred[0,11] - 0.0893520414829254 x_pred[0,12]
   + 0.1454807221889496 x_pred[0,13] - 0.083714447915554 x_pred[0,14]
   + 0.1714698076248169 x_pred[0,15] + 0.0289401169866323 x_pred[0,16]
   + 0.1239428743720055 x_pred[0,17] + 0.0469506867229939 x_pred[0,18]
   + 0.1141037344932556 x_pred[0,19] - 0.1052724719047546 x_pred[0,20]
   - 0.1294410526752472 x_pred[0,21] - 0.1115362644195557 x_pred[0,22]
   + 0.1532651484012604 x_pred[0,23] + 0.0989535078406334 x_pred[0,24]
   - 0.0128433918580413 x_pred[0,25] - 0.1844621151685715 x_pred[0,26]
   - 0.1373361051082611 x_pred[0,27] + 0.0893179848790169 x_pred[0,28]
   + 0.1646291017532349 x_pred[0,29] + 0.00273721432313323 x_pred[0,30]
   + 0.1137400195002556 x_pred[0,31] + 0.0529122017323971 x_pred[0,32]
   + 0.050516240298748 x_pred[0,33] - 0.1208417639136314 x_pred[0,34]
   - 0.1366590410470963 x_pred[0,35] + 0.042899239808321 x_pred[0,36]
   + sequential.linear_0.act[0,105] = -0.0732541680335999
 sequential.linear_0.R212: 0.1011986285448074 x_pred[0,0]
   - 0.1113669127225876 x_pred[0,1] + 0.283714085817337 x_pred[0,2]
   + 0.6149985790252686 x_pred[0,3] + 0.3531862497329712 x_pred[0,4]
   + 0.1204905062913895 x_pred[0,5] + 0.1286121606826782 x_pred[0,6]
   + 0.072568841278553 x_pred[0,7] + 0.1245954185724258 x_pred[0,8]
   + 0.1864882558584213 x_pred[0,9] - 0.0229133497923613 x_pred[0,10]
   - 0.0142609030008316 x_pred[0,11] - 0.0611140914261341 x_pred[0,12]
   - 0.0139931673184037 x_pred[0,13] + 0.0846682116389275 x_pred[0,14]
   + 0.063601054251194 x_pred[0,15] + 0.2512810230255127 x_pred[0,16]
   - 0.1185256168246269 x_pred[0,17] + 0.1512083262205124 x_pred[0,18]
   + 0.0611701719462872 x_pred[0,19] - 0.024076284840703 x_pred[0,20]
   + 0.0771417692303658 x_pred[0,21] + 0.112090528011322 x_pred[0,22]
   + 0.1278086006641388 x_pred[0,23] + 0.0126173105090857 x_pred[0,24]
   - 0.1102734506130219 x_pred[0,25] - 0.0674508735537529 x_pred[0,26]
   + 0.0962357595562935 x_pred[0,27] - 0.1090183556079865 x_pred[0,28]
   + 0.00506023084744811 x_pred[0,29] - 0.0677546858787537 x_pred[0,30]
   + 0.0220229960978031 x_pred[0,31] + 0.1204749867320061 x_pred[0,32]
   - 0.0422024503350258 x_pred[0,33] + 0.0775547921657562 x_pred[0,34]
   - 0.0842611715197563 x_pred[0,35] + 0.0662355273962021 x_pred[0,36]
   + sequential.linear_0.act[0,106] = 0.2336482256650925
 sequential.linear_0.R213: 0.1240678653120995 x_pred[0,0]
   - 0.0313186794519424 x_pred[0,1] - 0.0251664202660322 x_pred[0,2]
   + 0.1759559810161591 x_pred[0,3] - 0.0516012124717236 x_pred[0,4]
   - 0.143330916762352 x_pred[0,5] + 0.1000527441501617 x_pred[0,6]
   + 0.0209815483540297 x_pred[0,7] + 0.0122853880748153 x_pred[0,8]
   + 0.108967088162899 x_pred[0,9] + 0.0627241134643555 x_pred[0,10]
   + 0.2804811000823975 x_pred[0,11] + 0.0157667249441147 x_pred[0,12]
   + 0.0939456298947334 x_pred[0,13] - 0.1014651134610176 x_pred[0,14]
   + 0.1015321239829063 x_pred[0,15] - 0.1273120194673538 x_pred[0,16]
   + 0.1784622222185135 x_pred[0,17] + 0.0380684994161129 x_pred[0,18]
   + 0.1554135233163834 x_pred[0,19] - 0.3340347409248352 x_pred[0,20]
   - 0.00944328308105469 x_pred[0,21] - 0.053098414093256 x_pred[0,22]
   - 0.1819646507501602 x_pred[0,23] + 0.0245212540030479 x_pred[0,24]
   - 0.0723024904727936 x_pred[0,25] - 0.1958615183830261 x_pred[0,26]
   - 0.0635310485959053 x_pred[0,27] + 0.1381392329931259 x_pred[0,28]
   - 0.071300745010376 x_pred[0,29] + 0.1723554283380508 x_pred[0,30]
   + 0.1419893354177475 x_pred[0,31] + 0.1013675481081009 x_pred[0,32]
   + 0.094972737133503 x_pred[0,33] - 0.1778990179300308 x_pred[0,34]
   - 0.0105299074202776 x_pred[0,35] + 0.0287305191159248 x_pred[0,36]
   + sequential.linear_0.act[0,107] = -0.1289515495300293
 sequential.linear_0.R214: 0.0139603354036808 x_pred[0,0]
   - 0.176269143819809 x_pred[0,1] + 0.4667505323886871 x_pred[0,2]
   - 0.2632046341896057 x_pred[0,3] + 0.0214540101587772 x_pred[0,4]
   + 0.0857092291116714 x_pred[0,5] - 0.00492620840668678 x_pred[0,6]
   + 0.0898250713944435 x_pred[0,7] - 0.0999678894877434 x_pred[0,8]
   + 0.0502040982246399 x_pred[0,9] - 0.0741747841238976 x_pred[0,10]
   - 0.0457372516393661 x_pred[0,11] + 0.1606186181306839 x_pred[0,12]
   - 0.1938636898994446 x_pred[0,13] - 0.047388032078743 x_pred[0,14]
   - 0.0839817821979523 x_pred[0,15] + 0.0664989873766899 x_pred[0,16]
   + 0.0814947336912155 x_pred[0,17] + 0.0481646209955215 x_pred[0,18]
   - 0.0445334911346436 x_pred[0,19] + 0.00349672534503043 x_pred[0,20]
   - 0.1533899307250977 x_pred[0,21] - 0.0171311125159264 x_pred[0,22]
   - 0.0765806958079338 x_pred[0,23] - 0.1631058752536774 x_pred[0,24]
   + 0.0895588397979736 x_pred[0,25] - 0.0227392520755529 x_pred[0,26]
   - 0.0549045577645302 x_pred[0,27] - 0.0370271094143391 x_pred[0,28]
   - 0.0499199591577053 x_pred[0,29] - 0.0938116833567619 x_pred[0,30]
   + 0.0588985532522202 x_pred[0,31] - 0.0188492499291897 x_pred[0,32]
   + 0.1071175932884216 x_pred[0,33] - 0.0115687260404229 x_pred[0,34]
   + 0.0680313929915428 x_pred[0,35] - 0.1851954907178879 x_pred[0,36]
   + sequential.linear_0.act[0,108] = 0.3495936989784241
 sequential.linear_0.R215: - 0.0297569278627634 x_pred[0,0]
   + 0.1655116230249405 x_pred[0,1] + 0.1582015305757523 x_pred[0,2]
   + 0.064291775226593 x_pred[0,3] + 0.1397415548563004 x_pred[0,4]
   + 0.0195309855043888 x_pred[0,5] + 0.1153970286250114 x_pred[0,6]
   + 0.071453258395195 x_pred[0,7] - 0.0539903901517391 x_pred[0,8]
   - 0.0351856201887131 x_pred[0,9] - 0.097238577902317 x_pred[0,10]
   - 0.0874453857541084 x_pred[0,11] + 0.139437198638916 x_pred[0,12]
   + 0.0115181067958474 x_pred[0,13] - 0.1020773500204086 x_pred[0,14]
   + 0.0476637184619904 x_pred[0,15] - 0.0677374005317688 x_pred[0,16]
   + 0.0836861282587051 x_pred[0,17] - 0.029389463365078 x_pred[0,18]
   - 0.1579675823450089 x_pred[0,19] + 0.1385831981897354 x_pred[0,20]
   + 0.1843231618404388 x_pred[0,21] + 0.179232269525528 x_pred[0,22]
   + 0.1975151896476746 x_pred[0,23] - 0.036821324378252 x_pred[0,24]
   - 0.104329340159893 x_pred[0,25] - 0.00703076831996441 x_pred[0,26]
   - 0.0438586659729481 x_pred[0,27] + 0.1943972855806351 x_pred[0,28]
   - 0.0746174156665802 x_pred[0,29] + 0.2471054047346115 x_pred[0,30]
   + 0.0384552553296089 x_pred[0,31] - 0.00198725308291614 x_pred[0,32]
   + 0.0606805235147476 x_pred[0,33] - 0.0538822002708912 x_pred[0,34]
   - 0.00632426515221596 x_pred[0,35] + 0.0826559290289879 x_pred[0,36]
   + sequential.linear_0.act[0,109] = -0.1958027780056
 sequential.linear_0.R216: - 0.0381343550980091 x_pred[0,0]
   + 0.1341978311538696 x_pred[0,1] + 0.0166941285133362 x_pred[0,2]
   - 0.06088812276721 x_pred[0,3] + 0.1068481355905533 x_pred[0,4]
   - 0.125904843211174 x_pred[0,5] - 0.1759762614965439 x_pred[0,6]
   + 0.0633208528161049 x_pred[0,7] + 0.2192586958408356 x_pred[0,8]
   + 0.0733558237552643 x_pred[0,9] + 0.0295750964432955 x_pred[0,10]
   + 0.1764094531536102 x_pred[0,11] - 0.0213603097945452 x_pred[0,12]
   - 0.0816118121147156 x_pred[0,13] - 0.0898613855242729 x_pred[0,14]
   - 0.0219772402197123 x_pred[0,15] - 0.2112189382314682 x_pred[0,16]
   - 0.0943808481097221 x_pred[0,17] - 0.0695974081754684 x_pred[0,18]
   - 0.0374184660613537 x_pred[0,19] - 0.2033491432666779 x_pred[0,20]
   - 0.0872167572379112 x_pred[0,21] + 0.0863639116287231 x_pred[0,22]
   + 0.0609475672245026 x_pred[0,23] + 0.2307747453451157 x_pred[0,24]
   - 0.1472787857055664 x_pred[0,25] - 0.078976109623909 x_pred[0,26]
   + 0.0597147569060326 x_pred[0,27] - 0.0557980574667454 x_pred[0,28]
   - 0.00315770134329796 x_pred[0,29] + 0.0393967181444168 x_pred[0,30]
   + 0.0344723239541054 x_pred[0,31] + 0.0313918106257915 x_pred[0,32]
   + 0.0124210929498076 x_pred[0,33] + 0.1183184236288071 x_pred[0,34]
   + 0.1331778168678284 x_pred[0,35] + 0.0657806918025017 x_pred[0,36]
   + sequential.linear_0.act[0,110] = -0.166332945227623
 sequential.linear_0.R217: - 0.0111790662631392 x_pred[0,0]
   + 0.00558298593387008 x_pred[0,1] + 0.0326633863151073 x_pred[0,2]
   + 0.2184154838323593 x_pred[0,3] + 0.093760758638382 x_pred[0,4]
   + 0.0489832274615765 x_pred[0,5] + 0.1636762320995331 x_pred[0,6]
   + 0.1441166549921036 x_pred[0,7] - 0.0999061539769173 x_pred[0,8]
   - 0.1027520969510078 x_pred[0,9] + 0.1377050131559372 x_pred[0,10]
   + 0.092026062309742 x_pred[0,11] + 0.0501534044742584 x_pred[0,12]
   - 0.0361815989017487 x_pred[0,13] - 0.1693021357059479 x_pred[0,14]
   + 0.0194060448557138 x_pred[0,15] - 0.0675210505723953 x_pred[0,16]
   + 0.1080867797136307 x_pred[0,17] + 0.0495506525039673 x_pred[0,18]
   + 0.0705833062529564 x_pred[0,19] + 0.0695795714855194 x_pred[0,20]
   + 0.0543671436607838 x_pred[0,21] + 0.1537945419549942 x_pred[0,22]
   + 0.0187410973012447 x_pred[0,23] - 0.1307922601699829 x_pred[0,24]
   - 0.0892735421657562 x_pred[0,25] - 0.2545905411243439 x_pred[0,26]
   + 0.169930025935173 x_pred[0,27] - 0.0225028935819864 x_pred[0,28]
   - 0.0174707565456629 x_pred[0,29] - 0.0184440445154905 x_pred[0,30]
   + 0.1340813338756561 x_pred[0,31] - 0.0137003045529127 x_pred[0,32]
   - 0.1207946613430977 x_pred[0,33] + 0.0598661564290524 x_pred[0,34]
   + 0.2026682049036026 x_pred[0,35] + 0.015214117243886 x_pred[0,36]
   + sequential.linear_0.act[0,111] = -0.0846023857593536
 sequential.linear_0.R218: 0.1265427619218826 x_pred[0,0]
   + 0.0451010055840015 x_pred[0,1] + 0.1652881652116776 x_pred[0,2]
   + 0.0936853587627411 x_pred[0,3] + 0.2712549865245819 x_pred[0,4]
   - 0.1250021010637283 x_pred[0,5] + 0.0379309318959713 x_pred[0,6]
   + 0.1825343072414398 x_pred[0,7] + 0.1009686812758446 x_pred[0,8]
   - 0.00314683886244893 x_pred[0,9] - 0.0186082739382982 x_pred[0,10]
   - 0.0652648136019707 x_pred[0,11] + 0.2846344709396362 x_pred[0,12]
   - 0.056886799633503 x_pred[0,13] - 0.19370436668396 x_pred[0,14]
   + 0.0291577484458685 x_pred[0,15] - 0.0519363954663277 x_pred[0,16]
   + 0.0782389417290688 x_pred[0,17] + 0.00286417361348867 x_pred[0,18]
   + 0.1524381637573242 x_pred[0,19] + 0.1736521422863007 x_pred[0,20]
   - 0.0822922214865685 x_pred[0,21] - 0.1504737287759781 x_pred[0,22]
   + 0.1016664057970047 x_pred[0,23] - 0.0478325933218002 x_pred[0,24]
   + 0.1071940362453461 x_pred[0,25] + 0.1279739141464233 x_pred[0,26]
   - 0.0505958236753941 x_pred[0,27] - 0.0489568598568439 x_pred[0,28]
   - 0.0345599688589573 x_pred[0,29] - 0.0154911996796727 x_pred[0,30]
   + 0.125400111079216 x_pred[0,31] - 0.1349254548549652 x_pred[0,32]
   + 0.0537656806409359 x_pred[0,33] + 0.0191936194896698 x_pred[0,34]
   + 0.1854849755764008 x_pred[0,35] - 0.0968711599707603 x_pred[0,36]
   + sequential.linear_0.act[0,112] = -0.1220287159085274
 sequential.linear_0.R219: 0.1523146331310272 x_pred[0,0]
   + 0.1249228343367577 x_pred[0,1] + 0.2159639298915863 x_pred[0,2]
   - 0.3867968916893005 x_pred[0,3] - 0.2257877588272095 x_pred[0,4]
   - 0.1235836669802666 x_pred[0,5] + 0.0854418948292732 x_pred[0,6]
   + 0.0743202269077301 x_pred[0,7] + 0.0134973842650652 x_pred[0,8]
   + 0.1675011962652206 x_pred[0,9] + 0.123394101858139 x_pred[0,10]
   - 0.0812553688883781 x_pred[0,11] + 0.0794425532221794 x_pred[0,12]
   + 0.0393094606697559 x_pred[0,13] + 0.1098132580518723 x_pred[0,14]
   + 0.0176483821123838 x_pred[0,15] + 0.0110370591282845 x_pred[0,16]
   + 0.0720721632242203 x_pred[0,17] + 0.0492091104388237 x_pred[0,18]
   + 0.0789436027407646 x_pred[0,19] + 0.1231495290994644 x_pred[0,20]
   - 0.1179788485169411 x_pred[0,21] + 0.1180759072303772 x_pred[0,22]
   + 0.0188876129686832 x_pred[0,23] + 0.092410184442997 x_pred[0,24]
   - 0.0930696651339531 x_pred[0,25] + 0.2173978835344315 x_pred[0,26]
   - 0.0454133898019791 x_pred[0,27] + 0.1209883764386177 x_pred[0,28]
   + 0.1197070106863976 x_pred[0,29] - 0.100555419921875 x_pred[0,30]
   - 0.0499422512948513 x_pred[0,31] + 0.0526740550994873 x_pred[0,32]
   + 0.058264784514904 x_pred[0,33] + 0.0569505989551544 x_pred[0,34]
   + 0.0195111781358719 x_pred[0,35] - 0.1415912210941315 x_pred[0,36]
   + sequential.linear_0.act[0,113] = 0.0132131138816476
 sequential.linear_0.R220: 0.0788249224424362 x_pred[0,0]
   + 0.1946491301059723 x_pred[0,1] + 0.2314427644014359 x_pred[0,2]
   + 1.158511281013489 x_pred[0,3] + 0.4963743984699249 x_pred[0,4]
   + 0.021500326693058 x_pred[0,5] + 0.1571194976568222 x_pred[0,6]
   + 0.0818290859460831 x_pred[0,7] - 0.0704598501324654 x_pred[0,8]
   - 0.0778703913092613 x_pred[0,9] + 0.0645883902907372 x_pred[0,10]
   - 0.00663258088752627 x_pred[0,11] - 0.00876521877944469 x_pred[0,12]
   - 0.0040306793525815 x_pred[0,13] - 0.009184954687953 x_pred[0,14]
   + 0.0348601415753365 x_pred[0,15] + 0.047684658318758 x_pred[0,16]
   - 0.1283710300922394 x_pred[0,17] - 0.095347173511982 x_pred[0,18]
   - 0.1563849598169327 x_pred[0,19] + 0.0714156404137611 x_pred[0,20]
   - 0.0790411084890366 x_pred[0,21] + 0.1885200291872025 x_pred[0,22]
   + 0.196874275803566 x_pred[0,23] - 4.6082862536422908e-04 x_pred[0,24]
   - 0.0610045082867146 x_pred[0,25] - 0.0985197350382805 x_pred[0,26]
   + 0.0332078188657761 x_pred[0,27] + 0.0150174237787724 x_pred[0,28]
   + 0.00650716572999954 x_pred[0,29] - 0.1883760988712311 x_pred[0,30]
   + 0.0997146368026733 x_pred[0,31] + 0.1284220963716507 x_pred[0,32]
   + 0.00351971900090575 x_pred[0,33] - 0.0336558856070042 x_pred[0,34]
   + 0.0909533277153969 x_pred[0,35] - 0.033948864787817 x_pred[0,36]
   + sequential.linear_0.act[0,114] = 0.1607993841171265
 sequential.linear_0.R221: 0.0667553916573524 x_pred[0,0]
   + 0.0159631092101336 x_pred[0,1] + 0.0432761684060097 x_pred[0,2]
   + 0.0451967529952526 x_pred[0,3] + 0.2089857310056686 x_pred[0,4]
   + 0.0426588729023933 x_pred[0,5] - 0.0672137811779976 x_pred[0,6]
   + 0.1566599458456039 x_pred[0,7] + 0.0107242614030838 x_pred[0,8]
   - 0.1217994913458824 x_pred[0,9] + 0.1762645095586777 x_pred[0,10]
   + 0.0732364431023598 x_pred[0,11] + 0.1122109293937683 x_pred[0,12]
   + 0.1848417967557907 x_pred[0,13] + 0.0329779610037804 x_pred[0,14]
   + 0.0818702951073647 x_pred[0,15] - 0.0583071373403072 x_pred[0,16]
   + 0.0215537995100021 x_pred[0,17] + 0.0717050582170486 x_pred[0,18]
   - 0.0121693452820182 x_pred[0,19] - 0.0390620976686478 x_pred[0,20]
   - 0.0758278146386147 x_pred[0,21] - 0.0168759059160948 x_pred[0,22]
   - 0.1073086559772491 x_pred[0,23] - 0.013541541993618 x_pred[0,24]
   - 0.1404218226671219 x_pred[0,25] + 0.0112689984962344 x_pred[0,26]
   - 0.0456525757908821 x_pred[0,27] + 0.106585331261158 x_pred[0,28]
   + 0.0190240517258644 x_pred[0,29] - 0.0738632678985596 x_pred[0,30]
   + 0.2336601614952087 x_pred[0,31] - 0.1388786882162094 x_pred[0,32]
   + 0.11744774132967 x_pred[0,33] + 0.138056144118309 x_pred[0,34]
   - 0.0629197359085083 x_pred[0,35] - 0.0663631558418274 x_pred[0,36]
   + sequential.linear_0.act[0,115] = -0.0747007802128792
 sequential.linear_0.R222: - 0.0427126698195934 x_pred[0,0]
   - 0.0910803601145744 x_pred[0,1] + 0.0429654344916344 x_pred[0,2]
   + 0.2985460460186005 x_pred[0,3] + 0.1034576073288918 x_pred[0,4]
   + 0.1091536357998848 x_pred[0,5] + 0.00658000074326992 x_pred[0,6]
   + 0.1113017052412033 x_pred[0,7] + 0.0201731584966183 x_pred[0,8]
   - 0.00406127749010921 x_pred[0,9] + 0.0851679667830467 x_pred[0,10]
   - 0.1045100316405296 x_pred[0,11] + 0.0921132862567902 x_pred[0,12]
   + 0.03101796656847 x_pred[0,13] + 0.0675535202026367 x_pred[0,14]
   + 0.0869652181863785 x_pred[0,15] - 0.0668367743492126 x_pred[0,16]
   - 0.1282047927379608 x_pred[0,17] + 0.00828300975263119 x_pred[0,18]
   - 0.0746396332979202 x_pred[0,19] - 0.1170978546142578 x_pred[0,20]
   + 0.1774870753288269 x_pred[0,21] + 0.0599042773246765 x_pred[0,22]
   + 0.0792612880468369 x_pred[0,23] + 0.1539619565010071 x_pred[0,24]
   - 0.1123636439442635 x_pred[0,25] - 0.1391487121582031 x_pred[0,26]
   + 0.0645178034901619 x_pred[0,27] - 0.0947117283940315 x_pred[0,28]
   + 0.1734792441129684 x_pred[0,29] - 0.0386174023151398 x_pred[0,30]
   + 0.1124371513724327 x_pred[0,31] - 0.1145656332373619 x_pred[0,32]
   + 0.0415360294282436 x_pred[0,33] + 0.0839690193533897 x_pred[0,34]
   + 0.00622019404545426 x_pred[0,35] - 0.1099326387047768 x_pred[0,36]
   + sequential.linear_0.act[0,116] = -0.1498827338218689
 sequential.linear_0.R223: 0.1298364549875259 x_pred[0,0]
   + 0.0983613803982735 x_pred[0,1] - 0.04039191827178 x_pred[0,2]
   + 0.1316827237606049 x_pred[0,3] + 0.2121168226003647 x_pred[0,4]
   - 0.1556950658559799 x_pred[0,5] + 0.0995574295520782 x_pred[0,6]
   - 0.0610139593482018 x_pred[0,7] - 0.0907377600669861 x_pred[0,8]
   + 0.0997785776853561 x_pred[0,9] - 0.000836396 x_pred[0,10]
   - 0.00797949824482203 x_pred[0,11] + 0.0959572270512581 x_pred[0,12]
   - 0.0804410204291344 x_pred[0,13] + 0.0336478278040886 x_pred[0,14]
   - 0.0475758947432041 x_pred[0,15] + 0.049945455044508 x_pred[0,16]
   + 0.1605461537837982 x_pred[0,17] - 0.0430327691137791 x_pred[0,18]
   - 0.0339853651821613 x_pred[0,19] - 0.054121408611536 x_pred[0,20]
   - 0.1080366745591164 x_pred[0,21] - 0.0294808316975832 x_pred[0,22]
   - 0.0935099199414253 x_pred[0,23] + 0.1497438848018646 x_pred[0,24]
   + 0.0756209120154381 x_pred[0,25] + 0.1221589148044586 x_pred[0,26]
   + 0.0964083299040794 x_pred[0,27] - 0.1040370315313339 x_pred[0,28]
   + 0.1458090543746948 x_pred[0,29] + 0.0564002096652985 x_pred[0,30]
   + 0.1240642666816711 x_pred[0,31] + 0.0892984643578529 x_pred[0,32]
   - 0.0400020740926266 x_pred[0,33] + 0.0900249034166336 x_pred[0,34]
   + 0.00919406022876501 x_pred[0,35] - 0.1136880442500114 x_pred[0,36]
   + sequential.linear_0.act[0,117] = -0.0635721758008003
 sequential.linear_0.R224: - 0.0305687580257654 x_pred[0,0]
   + 0.0173577424138784 x_pred[0,1] + 0.0942985564470291 x_pred[0,2]
   + 0.0233361124992371 x_pred[0,3] - 0.1562666147947311 x_pred[0,4]
   - 0.0789352431893349 x_pred[0,5] - 0.1348924189805984 x_pred[0,6]
   - 0.0579546391963959 x_pred[0,7] - 0.1067819520831108 x_pred[0,8]
   + 0.0643816813826561 x_pred[0,9] - 0.0313419662415981 x_pred[0,10]
   - 0.0699309036135674 x_pred[0,11] - 0.1461687684059143 x_pred[0,12]
   + 0.0914157405495644 x_pred[0,13] + 0.0578975267708302 x_pred[0,14]
   + 0.0159406438469887 x_pred[0,15] + 0.1037850901484489 x_pred[0,16]
   - 0.051178939640522 x_pred[0,17] + 0.0452053062617779 x_pred[0,18]
   + 0.1537329852581024 x_pred[0,19] - 0.1563735604286194 x_pred[0,20]
   - 0.1534042507410049 x_pred[0,21] - 0.1344859600067139 x_pred[0,22]
   - 0.0173770729452372 x_pred[0,23] + 0.0213573053479195 x_pred[0,24]
   - 0.1343099921941757 x_pred[0,25] + 0.1649649143218994 x_pred[0,26]
   + 0.1142696514725685 x_pred[0,27] - 0.0638554841279984 x_pred[0,28]
   - 0.1020954549312592 x_pred[0,29] - 0.1722409278154373 x_pred[0,30]
   + 0.1404642015695572 x_pred[0,31] + 0.00505330786108971 x_pred[0,32]
   - 0.0708604827523232 x_pred[0,33] - 0.0817146077752113 x_pred[0,34]
   - 0.102208286523819 x_pred[0,35] - 0.1003004387021065 x_pred[0,36]
   + sequential.linear_0.act[0,118] = -0.1957201510667801
 sequential.linear_0.R225: 0.1753175258636475 x_pred[0,0]
   + 0.0963976383209229 x_pred[0,1] - 0.053547564893961 x_pred[0,2]
   + 0.0109247183427215 x_pred[0,3] - 0.0420618429780006 x_pred[0,4]
   + 0.181697890162468 x_pred[0,5] + 0.0204939804971218 x_pred[0,6]
   - 0.00894742365926504 x_pred[0,7] - 0.0902910009026527 x_pred[0,8]
   - 0.1329964846372604 x_pred[0,9] - 0.0924141258001328 x_pred[0,10]
   + 0.0973745211958885 x_pred[0,11] + 0.0580183900892735 x_pred[0,12]
   + 0.1340873539447784 x_pred[0,13] - 0.0996914580464363 x_pred[0,14]
   + 0.0808324664831161 x_pred[0,15] + 0.0753772109746933 x_pred[0,16]
   - 0.1006848812103271 x_pred[0,17] - 0.1200995221734047 x_pred[0,18]
   - 0.1569189578294754 x_pred[0,19] - 0.1028115898370743 x_pred[0,20]
   - 0.0657068192958832 x_pred[0,21] + 3.92115e-06 x_pred[0,22]
   + 0.0652343928813934 x_pred[0,23] - 0.0544456504285336 x_pred[0,24]
   + 0.00877278577536345 x_pred[0,25] + 0.00210526119917631 x_pred[0,26]
   + 0.1216646805405617 x_pred[0,27] + 0.1619549691677094 x_pred[0,28]
   - 0.0841685235500336 x_pred[0,29] + 0.1062579154968262 x_pred[0,30]
   - 0.0993674620985985 x_pred[0,31] - 0.0264815632253885 x_pred[0,32]
   + 0.0848204866051674 x_pred[0,33] - 0.0776618048548698 x_pred[0,34]
   - 0.0679321736097336 x_pred[0,35] - 0.131840318441391 x_pred[0,36]
   + sequential.linear_0.act[0,119] = -0.1630761623382568
 sequential.linear_0.R226: 0.0253443773835897 x_pred[0,0]
   + 1.292545199394226 x_pred[0,1] + 0.3128944337368011 x_pred[0,2]
   - 3.054032802581787 x_pred[0,3] - 5.218802928924561 x_pred[0,4]
   + 5.5748765589669347e-04 x_pred[0,5] - 0.0106921028345823 x_pred[0,6]
   - 0.00148816395085305 x_pred[0,7] - 0.00268836366012692 x_pred[0,8]
   - 0.00439482042565942 x_pred[0,9] + 0.00801853090524673 x_pred[0,10]
   - 0.0141616621986032 x_pred[0,11] + 0.0249922052025795 x_pred[0,12]
   - 0.0398060344159603 x_pred[0,13] - 0.0148060657083988 x_pred[0,14]
   + 0.0030875033698976 x_pred[0,15] + 0.478165477514267 x_pred[0,16]
   - 0.00684013916179538 x_pred[0,17] - 0.00552813755348325 x_pred[0,18]
   + 0.0100364731624722 x_pred[0,19] - 0.0177207142114639 x_pred[0,20]
   - 0.0169119760394096 x_pred[0,21] - 0.0157848373055458 x_pred[0,22]
   - 0.00552529143169522 x_pred[0,23] + 0.0229534301906824 x_pred[0,24]
   + 0.014019331894815 x_pred[0,25] - 0.6997062563896179 x_pred[0,26]
   + 0.00436446676030755 x_pred[0,27] - 0.00294020096771419 x_pred[0,28]
   - 0.0300732739269733 x_pred[0,29] - 0.00575378723442554 x_pred[0,30]
   - 0.0227016545832157 x_pred[0,31] + 0.00564721925184131 x_pred[0,32]
   - 0.00738239800557494 x_pred[0,33] - 0.00621007196605206 x_pred[0,34]
   - 0.020909957587719 x_pred[0,35] - 0.0117989480495453 x_pred[0,36]
   + sequential.linear_0.act[0,120] = -0.3967903256416321
 sequential.linear_0.R227: 0.169046625494957 x_pred[0,0]
   - 0.0400490052998066 x_pred[0,1] + 0.1318372189998627 x_pred[0,2]
   + 1.304106831550598 x_pred[0,3] + 0.4203373491764069 x_pred[0,4]
   + 0.0447415336966515 x_pred[0,5] - 0.0167607944458723 x_pred[0,6]
   + 0.00105134269688278 x_pred[0,7] + 0.0253954976797104 x_pred[0,8]
   + 0.0591826662421227 x_pred[0,9] + 0.0432670935988426 x_pred[0,10]
   + 0.00435184501111507 x_pred[0,11] - 0.0293583460152149 x_pred[0,12]
   + 0.1762680411338806 x_pred[0,13] - 0.1009706854820251 x_pred[0,14]
   - 0.1297343969345093 x_pred[0,15] + 0.023694921284914 x_pred[0,16]
   + 0.1240881532430649 x_pred[0,17] - 0.0567077957093716 x_pred[0,18]
   + 0.0891636982560158 x_pred[0,19] - 0.0981819853186607 x_pred[0,20]
   + 0.0202050060033798 x_pred[0,21] - 0.0628528892993927 x_pred[0,22]
   - 0.0629619732499123 x_pred[0,23] - 0.1231178715825081 x_pred[0,24]
   - 0.0895237326622009 x_pred[0,25] + 0.2971788346767426 x_pred[0,26]
   + 0.1396675407886505 x_pred[0,27] + 0.1296598762273788 x_pred[0,28]
   + 0.130145400762558 x_pred[0,29] - 0.0397617667913437 x_pred[0,30]
   - 0.1597112715244293 x_pred[0,31] + 0.073623426258564 x_pred[0,32]
   - 0.00570205599069595 x_pred[0,33] - 0.0154606336727738 x_pred[0,34]
   + 0.1713974177837372 x_pred[0,35] - 0.1259936392307281 x_pred[0,36]
   + sequential.linear_0.act[0,121] = -0.0262832306325436
 sequential.linear_0.R228: - 0.1420156061649323 x_pred[0,0]
   + 0.1078633889555931 x_pred[0,1] - 0.0144166545942426 x_pred[0,2]
   + 0.2202298194169998 x_pred[0,3] + 0.1234972402453423 x_pred[0,4]
   - 0.0082667013630271 x_pred[0,5] - 0.1300047785043716 x_pred[0,6]
   + 0.1113270074129105 x_pred[0,7] - 0.0657446309924126 x_pred[0,8]
   - 0.206414207816124 x_pred[0,9] - 0.0578282251954079 x_pred[0,10]
   - 0.0430673286318779 x_pred[0,11] + 0.1117187961935997 x_pred[0,12]
   + 0.1170435324311256 x_pred[0,13] + 0.0891159996390343 x_pred[0,14]
   - 0.0342874191701412 x_pred[0,15] + 0.029015326872468 x_pred[0,16]
   + 0.0540742836892605 x_pred[0,17] - 0.00206021778285503 x_pred[0,18]
   + 0.1280330270528793 x_pred[0,19] - 0.0329761132597923 x_pred[0,20]
   + 0.0666394829750061 x_pred[0,21] + 0.1316526085138321 x_pred[0,22]
   + 0.0779671519994736 x_pred[0,23] - 0.0409490689635277 x_pred[0,24]
   - 0.1176940277218819 x_pred[0,25] - 0.143880307674408 x_pred[0,26]
   + 0.0457459650933743 x_pred[0,27] + 0.012266562320292 x_pred[0,28]
   + 0.0477136820554733 x_pred[0,29] + 0.0148154981434345 x_pred[0,30]
   + 0.1770266145467758 x_pred[0,31] + 0.00962722394615412 x_pred[0,32]
   + 0.0393992550671101 x_pred[0,33] + 0.0923430100083351 x_pred[0,34]
   + 0.1137263849377632 x_pred[0,35] - 0.2200494110584259 x_pred[0,36]
   + sequential.linear_0.act[0,122] = -0.2252286523580551
 sequential.linear_0.R229: - 0.00587498629465699 x_pred[0,0]
   + 0.0537420809268951 x_pred[0,1] - 0.0141748739406466 x_pred[0,2]
   + 0.1695010662078857 x_pred[0,3] + 0.0404447205364704 x_pred[0,4]
   + 0.0507112443447113 x_pred[0,5] - 0.1800078749656677 x_pred[0,6]
   + 0.214095875620842 x_pred[0,7] + 0.0513707175850868 x_pred[0,8]
   - 0.0093671390786767 x_pred[0,9] + 0.15378637611866 x_pred[0,10]
   + 0.00437622470781207 x_pred[0,11] - 0.1210324987769127 x_pred[0,12]
   + 0.0337353758513927 x_pred[0,13] - 0.0695144906640053 x_pred[0,14]
   + 0.166614443063736 x_pred[0,15] - 0.1664857864379883 x_pred[0,16]
   + 0.050453457981348 x_pred[0,17] - 0.1605075746774673 x_pred[0,18]
   - 0.0904513373970985 x_pred[0,19] - 0.00270949676632881 x_pred[0,20]
   - 0.1081895604729652 x_pred[0,21] + 0.2005486190319061 x_pred[0,22]
   - 0.1034954115748405 x_pred[0,23] - 0.0153240105137229 x_pred[0,24]
   - 0.0257032494992018 x_pred[0,25] - 0.0919968634843826 x_pred[0,26]
   - 0.069535955786705 x_pred[0,27] - 0.1120550706982613 x_pred[0,28]
   - 0.2623338997364044 x_pred[0,29] + 0.057616051286459 x_pred[0,30]
   + 0.0956681743264198 x_pred[0,31] - 0.108420729637146 x_pred[0,32]
   + 0.1442627012729645 x_pred[0,33] - 0.0898692160844803 x_pred[0,34]
   - 0.0111590037122369 x_pred[0,35] - 0.0174714736640453 x_pred[0,36]
   + sequential.linear_0.act[0,123] = -0.0593931786715984
 sequential.linear_0.R230: 0.3236084282398224 x_pred[0,0]
   + 0.3823884725570679 x_pred[0,1] + 0.3274888396263123 x_pred[0,2]
   + 0.1378514170646667 x_pred[0,3] + 0.2003041654825211 x_pred[0,4]
   + 0.0972963497042656 x_pred[0,5] - 0.0953467935323715 x_pred[0,6]
   + 0.1538981795310974 x_pred[0,7] + 0.1078013405203819 x_pred[0,8]
   + 0.0214454662054777 x_pred[0,9] + 0.0737496316432953 x_pred[0,10]
   - 0.0863551795482635 x_pred[0,11] + 0.0278411209583282 x_pred[0,12]
   + 0.0732463598251343 x_pred[0,13] - 0.0658823251724243 x_pred[0,14]
   + 0.0608974918723106 x_pred[0,15] - 0.2675532102584839 x_pred[0,16]
   - 0.1140841692686081 x_pred[0,17] + 0.0254583060741425 x_pred[0,18]
   - 0.1623620539903641 x_pred[0,19] + 0.1166612729430199 x_pred[0,20]
   - 0.083072766661644 x_pred[0,21] + 0.1005433797836304 x_pred[0,22]
   + 0.1151928529143333 x_pred[0,23] - 0.0427292734384537 x_pred[0,24]
   - 0.0899401903152466 x_pred[0,25] + 0.2680531144142151 x_pred[0,26]
   + 0.1279033124446869 x_pred[0,27] + 0.0343535095453262 x_pred[0,28]
   + 0.1152934581041336 x_pred[0,29] + 0.1262277811765671 x_pred[0,30]
   - 0.0177618078887463 x_pred[0,31] - 0.1072716414928436 x_pred[0,32]
   - 0.1255076080560684 x_pred[0,33] - 0.1673497557640076 x_pred[0,34]
   - 0.1096010431647301 x_pred[0,35] + 0.0317717604339123 x_pred[0,36]
   + sequential.linear_0.act[0,124] = 0.00523012783378363
 sequential.linear_0.R231: 0.2143200486898422 x_pred[0,0]
   + 0.0222535599023104 x_pred[0,1] - 0.6996398568153381 x_pred[0,2]
   + 1.886881589889526 x_pred[0,3] + 3.060900211334229 x_pred[0,4]
   - 0.00330775929614902 x_pred[0,5] - 0.050942312926054 x_pred[0,6]
   + 0.00268255872651935 x_pred[0,7] - 0.0225378051400185 x_pred[0,8]
   + 0.0436258241534233 x_pred[0,9] + 0.0412049405276775 x_pred[0,10]
   - 0.0231348499655724 x_pred[0,11] - 0.04118911921978 x_pred[0,12]
   + 0.0164485275745392 x_pred[0,13] - 0.016800582408905 x_pred[0,14]
   - 0.0178350936621428 x_pred[0,15] + 0.1306621134281158 x_pred[0,16]
   - 0.0371882617473602 x_pred[0,17] + 0.051036212593317 x_pred[0,18]
   + 0.0362783372402191 x_pred[0,19] - 0.045641090720892 x_pred[0,20]
   - 0.0219434984028339 x_pred[0,21] + 0.0306786801666021 x_pred[0,22]
   + 0.0434138625860214 x_pred[0,23] + 0.0138809876516461 x_pred[0,24]
   + 0.00285630533471704 x_pred[0,25] - 0.2139363139867783 x_pred[0,26]
   + 0.0327411703765392 x_pred[0,27] - 0.1278691440820694 x_pred[0,28]
   + 0.0228912495076656 x_pred[0,29] - 0.0218288172036409 x_pred[0,30]
   + 0.0224234741181135 x_pred[0,31] + 0.0311588644981384 x_pred[0,32]
   - 0.0433930717408657 x_pred[0,33] + 0.034375973045826 x_pred[0,34]
   - 0.0579978302121162 x_pred[0,35] + 0.0256446544080973 x_pred[0,36]
   + sequential.linear_0.act[0,125] = -0.0531381331384182
 sequential.linear_0.R232: 0.0615677908062935 x_pred[0,0]
   + 0.266787052154541 x_pred[0,1] + 0.1807477027177811 x_pred[0,2]
   + 0.2383501529693604 x_pred[0,3] + 0.2486652731895447 x_pred[0,4]
   - 0.1924202889204025 x_pred[0,5] - 0.1542895436286926 x_pred[0,6]
   + 0.1531885862350464 x_pred[0,7] - 0.0454601980745792 x_pred[0,8]
   - 0.1233534216880798 x_pred[0,9] - 0.0289927832782269 x_pred[0,10]
   - 0.00135893 x_pred[0,11] + 0.2465604543685913 x_pred[0,12]
   - 0.0138622988015413 x_pred[0,13] - 0.206476166844368 x_pred[0,14]
   + 0.2202183455228806 x_pred[0,15] - 0.1701123267412186 x_pred[0,16]
   + 0.00864608958363533 x_pred[0,17] + 0.169403612613678 x_pred[0,18]
   + 0.0843618735671043 x_pred[0,19] + 0.0924715250730515 x_pred[0,20]
   - 0.1873253434896469 x_pred[0,21] - 0.1076734587550163 x_pred[0,22]
   - 0.0318159610033035 x_pred[0,23] + 0.0132306274026632 x_pred[0,24]
   - 0.1336127370595932 x_pred[0,25] + 0.1011143252253532 x_pred[0,26]
   + 0.00832993816584349 x_pred[0,27] + 0.0614927858114243 x_pred[0,28]
   + 0.0859121903777122 x_pred[0,29] - 0.0458093695342541 x_pred[0,30]
   - 0.0662543252110481 x_pred[0,31] + 0.0869292616844177 x_pred[0,32]
   + 0.1174044385552406 x_pred[0,33] - 0.1326453685760498 x_pred[0,34]
   + 0.1468238234519958 x_pred[0,35] - 0.0963441282510757 x_pred[0,36]
   + sequential.linear_0.act[0,126] = -0.0176477339118719
 sequential.linear_0.R233: 0.2121427655220032 x_pred[0,0]
   + 0.1359522491693497 x_pred[0,1] + 0.1154992952942848 x_pred[0,2]
   + 0.0496469177305698 x_pred[0,3] - 0.0324253402650356 x_pred[0,4]
   - 0.0053399009630084 x_pred[0,5] + 0.1105383038520813 x_pred[0,6]
   + 0.1187227889895439 x_pred[0,7] - 0.0626400336623192 x_pred[0,8]
   - 0.033508837223053 x_pred[0,9] + 0.00110352784395218 x_pred[0,10]
   - 0.031628705561161 x_pred[0,11] + 0.1435477733612061 x_pred[0,12]
   + 0.1368815451860428 x_pred[0,13] + 0.00408685626462102 x_pred[0,14]
   - 0.0873054936528206 x_pred[0,15] - 0.2523053884506226 x_pred[0,16]
   + 0.0193827599287033 x_pred[0,17] + 0.0950253456830978 x_pred[0,18]
   - 0.0774332657456398 x_pred[0,19] - 0.0519552044570446 x_pred[0,20]
   - 0.0179599821567535 x_pred[0,21] + 0.1801426261663437 x_pred[0,22]
   + 0.00780316581949592 x_pred[0,23] - 0.0327442027628422 x_pred[0,24]
   - 0.2105309963226318 x_pred[0,25] + 0.0593647137284279 x_pred[0,26]
   - 0.0525485910475254 x_pred[0,27] - 0.0672080144286156 x_pred[0,28]
   - 0.08596421033144 x_pred[0,29] - 0.0101516917347908 x_pred[0,30]
   - 0.105950340628624 x_pred[0,31] - 0.2179451286792755 x_pred[0,32]
   - 0.016292642802 x_pred[0,33] + 0.0957926362752914 x_pred[0,34]
   + 0.0388296544551849 x_pred[0,35] + 0.0452902764081955 x_pred[0,36]
   + sequential.linear_0.act[0,127] = -0.0599620305001736
 sequential.linear_2.R234: y_pred[0,0]
   + 0.0229919739067554 sequential.relu_1.act[0,0]
   - 0.00454036332666874 sequential.relu_1.act[0,1]
   + 1.384531021118164 sequential.relu_1.act[0,2]
   + 0.0140329170972109 sequential.relu_1.act[0,3]
   + 0.1315259784460068 sequential.relu_1.act[0,4]
   + 0.0166036766022444 sequential.relu_1.act[0,5]
   - 0.0129521945491433 sequential.relu_1.act[0,6]
   + 7.910465938039124e-04 sequential.relu_1.act[0,7]
   + 0.0571538098156452 sequential.relu_1.act[0,8]
   - 0.00164259038865566 sequential.relu_1.act[0,9]
   - 0.00869424641132355 sequential.relu_1.act[0,10]
   + 0.00490598613396287 sequential.relu_1.act[0,11]
   - 0.00344633823260665 sequential.relu_1.act[0,12]
   + 0.00372723815962672 sequential.relu_1.act[0,13]
   + 0.0851441770792007 sequential.relu_1.act[0,14]
   - 0.0104397581890225 sequential.relu_1.act[0,15]
   - 0.1164082810282707 sequential.relu_1.act[0,16]
   + 0.0689980089664459 sequential.relu_1.act[0,17]
   - 0.103261686861515 sequential.relu_1.act[0,18]
   - 0.0174009501934052 sequential.relu_1.act[0,19]
   - 0.0104922521859407 sequential.relu_1.act[0,20]
   - 0.0410736389458179 sequential.relu_1.act[0,21]
   - 0.0228661224246025 sequential.relu_1.act[0,22]
   - 1.870927691459656 sequential.relu_1.act[0,23]
   - 0.0243520140647888 sequential.relu_1.act[0,24]
   - 0.033851619809866 sequential.relu_1.act[0,25]
   + 0.1708975732326508 sequential.relu_1.act[0,26]
   + 0.9781737327575684 sequential.relu_1.act[0,27]
   + 0.0377421304583549 sequential.relu_1.act[0,28]
   - 0.0137874027714133 sequential.relu_1.act[0,29]
   + 0.0506309643387794 sequential.relu_1.act[0,30]
   - 0.0927472189068794 sequential.relu_1.act[0,31]
   - 2.498663187026978 sequential.relu_1.act[0,32]
   - 0.0139870485290885 sequential.relu_1.act[0,33]
   - 2.9938522493466735e-04 sequential.relu_1.act[0,34]
   - 0.0282409898936749 sequential.relu_1.act[0,35]
   - 0.0934189483523369 sequential.relu_1.act[0,36]
   - 0.0142511297017336 sequential.relu_1.act[0,37]
   - 0.3704342544078827 sequential.relu_1.act[0,38]
   - 0.0132768740877509 sequential.relu_1.act[0,39]
   - 8.4895163308829069e-04 sequential.relu_1.act[0,40]
   + 0.040913138538599 sequential.relu_1.act[0,41]
   - 1.616593956947327 sequential.relu_1.act[0,42]
   - 0.00171102082822472 sequential.relu_1.act[0,43]
   + 0.0387576296925545 sequential.relu_1.act[0,44]
   + 0.1100176945328712 sequential.relu_1.act[0,45]
   - 0.1678752154111862 sequential.relu_1.act[0,46]
   - 0.0154444240033627 sequential.relu_1.act[0,47]
   - 0.5850942134857178 sequential.relu_1.act[0,48]
   - 0.00757242552936077 sequential.relu_1.act[0,49]
   + 0.00144905562046915 sequential.relu_1.act[0,50]
   + 0.030927749350667 sequential.relu_1.act[0,51]
   - 0.00798735767602921 sequential.relu_1.act[0,52]
   - 0.00155248667579144 sequential.relu_1.act[0,53]
   - 0.0823897868394852 sequential.relu_1.act[0,54]
   - 0.1013309806585312 sequential.relu_1.act[0,55]
   - 0.00263123959302902 sequential.relu_1.act[0,56]
   - 4.1473138844594359e-04 sequential.relu_1.act[0,57]
   - 0.0468577332794666 sequential.relu_1.act[0,58]
   + 0.00779961328953505 sequential.relu_1.act[0,59]
   - 0.0652405917644501 sequential.relu_1.act[0,60]
   + 0.00273433816619217 sequential.relu_1.act[0,61]
   - 0.225769892334938 sequential.relu_1.act[0,62]
   - 0.0249694939702749 sequential.relu_1.act[0,63]
   - 0.1325460970401764 sequential.relu_1.act[0,64]
   - 1.977816343307495 sequential.relu_1.act[0,65]
   - 0.0245261881500483 sequential.relu_1.act[0,66]
   + 1.6138839418999851e-04 sequential.relu_1.act[0,67]
   + 0.0804048851132393 sequential.relu_1.act[0,68]
   - 0.0181089453399181 sequential.relu_1.act[0,69]
   + 0.0198969859629869 sequential.relu_1.act[0,70]
   - 0.00381427351385355 sequential.relu_1.act[0,71]
   + 0.0795559883117676 sequential.relu_1.act[0,72]
   - 0.0135330054908991 sequential.relu_1.act[0,73]
   - 0.2375636547803879 sequential.relu_1.act[0,74]
   + 0.070469431579113 sequential.relu_1.act[0,75]
   - 0.0415821075439453 sequential.relu_1.act[0,76]
   - 0.0330431386828423 sequential.relu_1.act[0,77]
   - 0.0153791988268495 sequential.relu_1.act[0,78]
   - 0.2934238016605377 sequential.relu_1.act[0,79]
   - 0.0182744767516851 sequential.relu_1.act[0,80]
   - 4.4471383444033563e-04 sequential.relu_1.act[0,81]
   - 0.0559293851256371 sequential.relu_1.act[0,82]
   + 0.6654166579246521 sequential.relu_1.act[0,83]
   + 0.00106705958023667 sequential.relu_1.act[0,84]
   - 0.1034870371222496 sequential.relu_1.act[0,85]
   - 0.4020403027534485 sequential.relu_1.act[0,86]
   - 0.00413349317386746 sequential.relu_1.act[0,87]
   + 1.241661071777344 sequential.relu_1.act[0,88]
   - 0.00676295394077897 sequential.relu_1.act[0,89]
   + 0.0349087603390217 sequential.relu_1.act[0,90]
   - 0.041005827486515 sequential.relu_1.act[0,91]
   - 0.00333866337314248 sequential.relu_1.act[0,92]
   + 0.0110507998615503 sequential.relu_1.act[0,93]
   + 0.7469946146011353 sequential.relu_1.act[0,94]
   + 1.171380519866943 sequential.relu_1.act[0,95]
   + 0.0379054583609104 sequential.relu_1.act[0,96]
   - 0.0316405482590199 sequential.relu_1.act[0,97]
   - 0.0715645849704742 sequential.relu_1.act[0,98]
   - 0.00451346067711711 sequential.relu_1.act[0,99]
   - 0.00401316350325942 sequential.relu_1.act[0,100]
   + 0.117696724832058 sequential.relu_1.act[0,101]
   + 0.0728326514363289 sequential.relu_1.act[0,102]
   - 0.00145994452759624 sequential.relu_1.act[0,103]
   - 0.0283939447253942 sequential.relu_1.act[0,104]
   - 4.4002814684063196e-04 sequential.relu_1.act[0,105]
   - 0.0713048800826073 sequential.relu_1.act[0,106]
   - 0.0343893729150295 sequential.relu_1.act[0,107]
   - 0.1798302382230759 sequential.relu_1.act[0,108]
   + 0.0125193484127522 sequential.relu_1.act[0,109]
   + 0.0667521208524704 sequential.relu_1.act[0,110]
   - 0.0249859467148781 sequential.relu_1.act[0,111]
   - 0.0333100520074368 sequential.relu_1.act[0,112]
   - 0.00409815600141883 sequential.relu_1.act[0,113]
   - 0.0636412426829338 sequential.relu_1.act[0,114]
   - 0.0170258861035109 sequential.relu_1.act[0,115]
   - 0.00832602102309465 sequential.relu_1.act[0,116]
   + 0.0183246899396181 sequential.relu_1.act[0,117]
   + 0.0519694462418556 sequential.relu_1.act[0,118]
   + 0.00669567147269845 sequential.relu_1.act[0,119]
   - 2.366007804870605 sequential.relu_1.act[0,120]
   + 0.0167669095098972 sequential.relu_1.act[0,121]
   + 0.0277560222893953 sequential.relu_1.act[0,122]
   - 0.00751227186992764 sequential.relu_1.act[0,123]
   - 0.0117252953350544 sequential.relu_1.act[0,124]
   + 1.243534207344055 sequential.relu_1.act[0,125]
   - 0.00775583507493138 sequential.relu_1.act[0,126]
   - 0.00470795668661594 sequential.relu_1.act[0,127] = 0.3818977177143097
 sequential0.linear_0.R235: 0.1030030697584152 x_pred[1,0]
   - 0.106019914150238 x_pred[1,1] + 0.3239108324050903 x_pred[1,2]
   + 2.196256875991821 x_pred[1,3] + 0.4625044465065002 x_pred[1,4]
   - 0.00879974570125341 x_pred[1,5] - 0.0333454832434654 x_pred[1,6]
   - 0.13629350066185 x_pred[1,7] + 0.1038747951388359 x_pred[1,8]
   - 0.0523248836398125 x_pred[1,9] - 0.0925188735127449 x_pred[1,10]
   + 0.0181692838668823 x_pred[1,11] - 0.0374050699174404 x_pred[1,12]
   - 0.1332228630781174 x_pred[1,13] - 0.1148994863033295 x_pred[1,14]
   + 0.023726049810648 x_pred[1,15] - 0.0541810914874077 x_pred[1,16]
   + 0.105942539870739 x_pred[1,17] + 0.1726626604795456 x_pred[1,18]
   - 0.175601601600647 x_pred[1,19] + 0.1819634884595871 x_pred[1,20]
   + 0.0287363491952419 x_pred[1,21] + 0.1424398571252823 x_pred[1,22]
   - 0.0965486913919449 x_pred[1,23] + 0.00728300493210554 x_pred[1,24]
   - 0.0491497367620468 x_pred[1,25] + 0.2231581658124924 x_pred[1,26]
   - 0.0222894474864006 x_pred[1,27] - 0.0694744065403938 x_pred[1,28]
   - 0.022442540153861 x_pred[1,29] + 0.1359539479017258 x_pred[1,30]
   - 0.2095372229814529 x_pred[1,31] + 0.1219770461320877 x_pred[1,32]
   - 0.0712548345327377 x_pred[1,33] - 0.0888763442635536 x_pred[1,34]
   - 0.0372118093073368 x_pred[1,35] + 0.1214856132864952 x_pred[1,36]
   + sequential0.linear_0.act[0,0] = 0.0131845315918326
 sequential0.linear_0.R236: 0.0274640340358019 x_pred[1,0]
   + 0.0353917255997658 x_pred[1,1] + 0.1632425338029861 x_pred[1,2]
   + 0.0203544236719608 x_pred[1,3] - 0.0107770338654518 x_pred[1,4]
   + 0.00744457636028528 x_pred[1,5] - 0.1345698684453964 x_pred[1,6]
   + 0.0255029611289501 x_pred[1,7] - 0.0603886991739273 x_pred[1,8]
   - 0.1332539916038513 x_pred[1,9] - 0.00386578030884266 x_pred[1,10]
   + 0.1974807232618332 x_pred[1,11] - 0.0438983850181103 x_pred[1,12]
   + 0.0617952533066273 x_pred[1,13] - 0.0921662747859955 x_pred[1,14]
   + 0.0604383759200573 x_pred[1,15] + 0.0785698443651199 x_pred[1,16]
   + 0.2447955757379532 x_pred[1,17] + 0.1378260254859924 x_pred[1,18]
   - 0.0747331976890564 x_pred[1,19] - 0.0715836212038994 x_pred[1,20]
   - 0.2207919955253601 x_pred[1,21] - 0.00300005078315735 x_pred[1,22]
   + 0.1730244010686874 x_pred[1,23] + 0.1587319225072861 x_pred[1,24]
   - 0.00707833841443062 x_pred[1,25] - 0.1081066057085991 x_pred[1,26]
   + 0.0185185074806213 x_pred[1,27] - 0.1599500924348831 x_pred[1,28]
   - 0.1115602254867554 x_pred[1,29] - 0.2334894686937332 x_pred[1,30]
   + 0.1205839589238167 x_pred[1,31] + 0.0243594367057085 x_pred[1,32]
   - 0.00331573747098446 x_pred[1,33] - 0.1595368087291718 x_pred[1,34]
   - 0.2025408148765564 x_pred[1,35] + 0.137985497713089 x_pred[1,36]
   + sequential0.linear_0.act[0,1] = -0.2022718191146851
 sequential0.linear_0.R237: 0.2312206774950027 x_pred[1,0]
   + 0.1517043709754944 x_pred[1,1] - 0.6793320178985596 x_pred[1,2]
   + 1.940301060676575 x_pred[1,3] + 2.973590850830078 x_pred[1,4]
   - 0.1621794104576111 x_pred[1,5] - 0.0782610327005386 x_pred[1,6]
   - 0.0739914253354073 x_pred[1,7] - 0.0809147581458092 x_pred[1,8]
   - 0.0383430495858192 x_pred[1,9] - 0.00600027851760387 x_pred[1,10]
   - 0.1024769023060799 x_pred[1,11] + 0.1181417778134346 x_pred[1,12]
   - 0.0666536539793015 x_pred[1,13] - 0.0509485341608524 x_pred[1,14]
   - 0.0401060618460178 x_pred[1,15] + 0.5972168445587158 x_pred[1,16]
   + 0.0315660983324051 x_pred[1,17] - 0.0256876684725285 x_pred[1,18]
   + 0.0192610621452332 x_pred[1,19] - 0.1055552065372467 x_pred[1,20]
   - 0.0334452390670776 x_pred[1,21] + 0.00869816169142723 x_pred[1,22]
   + 0.00134475820232183 x_pred[1,23] + 0.0588048584759235 x_pred[1,24]
   - 0.1330832690000534 x_pred[1,25] - 0.7585581541061401 x_pred[1,26]
   - 0.0588632561266422 x_pred[1,27] - 0.1028919741511345 x_pred[1,28]
   - 0.00412150146439672 x_pred[1,29] + 0.130238875746727 x_pred[1,30]
   + 0.0169929713010788 x_pred[1,31] + 0.1027425155043602 x_pred[1,32]
   + 0.0743981078267097 x_pred[1,33] + 0.0275892149657011 x_pred[1,34]
   - 0.0819760113954544 x_pred[1,35] - 0.1622583866119385 x_pred[1,36]
   + sequential0.linear_0.act[0,2] = -0.209830567240715
 sequential0.linear_0.R238: 0.1331662386655807 x_pred[1,0]
   + 0.0630884915590286 x_pred[1,1] + 0.0577102303504944 x_pred[1,2]
   + 0.0806281194090843 x_pred[1,3] + 0.2454551309347153 x_pred[1,4]
   + 0.065275602042675 x_pred[1,5] - 0.017397191375494 x_pred[1,6]
   - 0.0669408664107323 x_pred[1,7] + 0.1728163510560989 x_pred[1,8]
   - 0.051014207303524 x_pred[1,9] - 0.088514469563961 x_pred[1,10]
   - 0.0168200675398111 x_pred[1,11] + 0.182912603020668 x_pred[1,12]
   - 0.0572695322334766 x_pred[1,13] - 0.0724214613437653 x_pred[1,14]
   + 0.1065494641661644 x_pred[1,15] - 0.2041742205619812 x_pred[1,16]
   + 0.1214792504906654 x_pred[1,17] + 0.157589390873909 x_pred[1,18]
   - 0.1208427250385284 x_pred[1,19] + 0.1645557582378387 x_pred[1,20]
   + 0.1022713705897331 x_pred[1,21] + 0.2255580872297287 x_pred[1,22]
   - 0.1091993823647499 x_pred[1,23] + 0.1280030608177185 x_pred[1,24]
   - 0.00130854034796357 x_pred[1,25] - 0.0416727773845196 x_pred[1,26]
   - 0.0492047667503357 x_pred[1,27] + 0.0858494564890862 x_pred[1,28]
   + 3.04006e-06 x_pred[1,29] - 0.1640277802944183 x_pred[1,30]
   + 0.0183012317866087 x_pred[1,31] + 0.0661992654204369 x_pred[1,32]
   + 0.000596647 x_pred[1,33] - 0.00516700418666005 x_pred[1,34]
   - 0.00847130361944437 x_pred[1,35] + 0.0481001883745193 x_pred[1,36]
   + sequential0.linear_0.act[0,3] = -0.0216088984161615
 sequential0.linear_0.R239: 0.0676283538341522 x_pred[1,0]
   - 0.233078196644783 x_pred[1,1] + 0.2023860663175583 x_pred[1,2]
   + 3.924478530883789 x_pred[1,3] + 0.700996994972229 x_pred[1,4]
   + 0.0807196944952011 x_pred[1,5] + 0.003373195650056 x_pred[1,6]
   - 0.1462009996175766 x_pred[1,7] - 0.1414408832788467 x_pred[1,8]
   + 0.0189235955476761 x_pred[1,9] - 0.0481642782688141 x_pred[1,10]
   - 0.2262470871210098 x_pred[1,11] - 0.1575269401073456 x_pred[1,12]
   + 0.0777027904987335 x_pred[1,13] + 0.2370191514492035 x_pred[1,14]
   + 0.2218123823404312 x_pred[1,15] - 0.0862606018781662 x_pred[1,16]
   - 0.1172037646174431 x_pred[1,17] + 0.0973080098628998 x_pred[1,18]
   + 0.1421938240528107 x_pred[1,19] + 0.00616700341925025 x_pred[1,20]
   - 0.0107774492353201 x_pred[1,21] + 0.0956965014338493 x_pred[1,22]
   - 0.1548362225294113 x_pred[1,23] + 0.2167341709136963 x_pred[1,24]
   - 0.0819836929440498 x_pred[1,25] + 0.2485825270414352 x_pred[1,26]
   + 0.1176449805498123 x_pred[1,27] + 0.1100479736924171 x_pred[1,28]
   + 0.1070544719696045 x_pred[1,29] + 0.2444072812795639 x_pred[1,30]
   - 0.0254773143678904 x_pred[1,31] - 0.0394053049385548 x_pred[1,32]
   - 0.1895112991333008 x_pred[1,33] - 0.00564899761229753 x_pred[1,34]
   - 0.076285682618618 x_pred[1,35] - 0.24516661465168 x_pred[1,36]
   + sequential0.linear_0.act[0,4] = -0.166352242231369
 sequential0.linear_0.R240: 0.1239787191152573 x_pred[1,0]
   - 0.0480798482894897 x_pred[1,1] + 0.2049748301506042 x_pred[1,2]
   + 2.477269172668457 x_pred[1,3] + 0.3738226592540741 x_pred[1,4]
   + 0.0648567751049995 x_pred[1,5] - 0.014278769493103 x_pred[1,6]
   - 0.0634276643395424 x_pred[1,7] + 0.1615509837865829 x_pred[1,8]
   + 0.2179286628961563 x_pred[1,9] - 0.0646688044071198 x_pred[1,10]
   - 0.0545983798801899 x_pred[1,11] + 0.0660924017429352 x_pred[1,12]
   - 0.0796719044446945 x_pred[1,13] + 0.0504351854324341 x_pred[1,14]
   - 0.0902020931243896 x_pred[1,15] - 0.2037810534238815 x_pred[1,16]
   + 0.0380443558096886 x_pred[1,17] + 0.0788472220301628 x_pred[1,18]
   + 0.0962260067462921 x_pred[1,19] + 0.1354152113199234 x_pred[1,20]
   - 0.1348831206560135 x_pred[1,21] - 0.1089484319090843 x_pred[1,22]
   - 0.140574038028717 x_pred[1,23] + 0.1503563970327377 x_pred[1,24]
   - 0.0112528493627906 x_pred[1,25] + 0.1835344135761261 x_pred[1,26]
   + 0.0681480243802071 x_pred[1,27] + 0.00179934629704803 x_pred[1,28]
   + 0.0736899822950363 x_pred[1,29] + 0.1022466793656349 x_pred[1,30]
   - 0.112096942961216 x_pred[1,31] - 0.1497713774442673 x_pred[1,32]
   - 0.061494130641222 x_pred[1,33] + 0.1490494757890701 x_pred[1,34]
   + 0.1584583222866058 x_pred[1,35] - 0.1776635944843292 x_pred[1,36]
   + sequential0.linear_0.act[0,5] = -0.0266793258488178
 sequential0.linear_0.R241: 0.0916938781738281 x_pred[1,0]
   + 0.011811631731689 x_pred[1,1] + 0.2830029726028442 x_pred[1,2]
   + 0.5212692618370056 x_pred[1,3] + 0.3568128347396851 x_pred[1,4]
   + 0.0877586379647255 x_pred[1,5] + 0.1188803240656853 x_pred[1,6]
   - 0.0994766056537628 x_pred[1,7] + 0.1076673120260239 x_pred[1,8]
   + 0.0590332262217999 x_pred[1,9] - 0.0302300807088614 x_pred[1,10]
   - 0.1019817888736725 x_pred[1,11] - 0.1062313094735146 x_pred[1,12]
   + 0.0396397858858109 x_pred[1,13] - 0.0663406178355217 x_pred[1,14]
   + 0.1290527731180191 x_pred[1,15] + 0.1800826042890549 x_pred[1,16]
   + 0.0350220240652561 x_pred[1,17] + 0.0280755516141653 x_pred[1,18]
   + 0.0800586864352226 x_pred[1,19] - 0.1727092415094376 x_pred[1,20]
   - 0.0934422090649605 x_pred[1,21] + 0.1157656013965607 x_pred[1,22]
   - 0.0665943250060081 x_pred[1,23] - 0.0866488665342331 x_pred[1,24]
   + 0.0426352322101593 x_pred[1,25] + 0.0126129547134042 x_pred[1,26]
   - 0.0282244831323624 x_pred[1,27] - 0.0590755194425583 x_pred[1,28]
   - 0.085881419479847 x_pred[1,29] + 0.049555741250515 x_pred[1,30]
   - 0.1341686248779297 x_pred[1,31] + 0.1154779866337776 x_pred[1,32]
   + 0.0237536169588566 x_pred[1,33] + 0.012913809157908 x_pred[1,34]
   - 0.078526183962822 x_pred[1,35] + 0.1168828904628754 x_pred[1,36]
   + sequential0.linear_0.act[0,6] = 0.1126345619559288
 sequential0.linear_0.R242: - 0.0518931709229946 x_pred[1,0]
   + 0.0620248578488827 x_pred[1,1] + 0.0514636933803558 x_pred[1,2]
   + 0.2001564353704453 x_pred[1,3] + 0.0509214513003826 x_pred[1,4]
   + 0.0202403124421835 x_pred[1,5] - 0.0362769924104214 x_pred[1,6]
   + 0.1467548757791519 x_pred[1,7] - 0.0320699736475945 x_pred[1,8]
   + 0.0475751906633377 x_pred[1,9] + 0.0450626276433468 x_pred[1,10]
   + 0.0354997031390667 x_pred[1,11] + 0.0424185730516911 x_pred[1,12]
   - 0.0695793256163597 x_pred[1,13] - 0.1455259919166565 x_pred[1,14]
   - 0.0354008004069328 x_pred[1,15] + 0.0830090418457985 x_pred[1,16]
   - 0.1450196206569672 x_pred[1,17] + 0.1144389659166336 x_pred[1,18]
   + 0.1082063764333725 x_pred[1,19] - 0.00543095357716084 x_pred[1,20]
   + 0.1504631638526917 x_pred[1,21] + 0.1058562099933624 x_pred[1,22]
   + 0.0897258818149567 x_pred[1,23] + 0.0780454725027084 x_pred[1,24]
   + 0.1428855061531067 x_pred[1,25] - 0.1974410861730576 x_pred[1,26]
   + 0.0937535315752029 x_pred[1,27] + 0.0198098998516798 x_pred[1,28]
   + 0.1899287104606628 x_pred[1,29] + 0.0763399302959442 x_pred[1,30]
   + 0.0751267746090889 x_pred[1,31] - 0.1629523038864136 x_pred[1,32]
   - 0.1527827382087708 x_pred[1,33] - 0.0747523903846741 x_pred[1,34]
   - 0.1342723518610001 x_pred[1,35] - 0.0833372548222542 x_pred[1,36]
   + sequential0.linear_0.act[0,7] = -0.1075337752699852
 sequential0.linear_0.R243: 0.0382712222635746 x_pred[1,0]
   + 0.0199897307902575 x_pred[1,1] + 0.1622913330793381 x_pred[1,2]
   + 0.1142764687538147 x_pred[1,3] + 0.1174073815345764 x_pred[1,4]
   - 0.0439964942634106 x_pred[1,5] + 0.1109126508235931 x_pred[1,6]
   + 0.2319285422563553 x_pred[1,7] - 0.1330283433198929 x_pred[1,8]
   + 0.1578695327043533 x_pred[1,9] + 0.2253981530666351 x_pred[1,10]
   + 0.1245853751897812 x_pred[1,11] + 0.2292459905147552 x_pred[1,12]
   + 0.2162629067897797 x_pred[1,13] - 0.438455730676651 x_pred[1,14]
   - 0.0815938487648964 x_pred[1,15] - 0.1597240120172501 x_pred[1,16]
   + 0.0506350360810757 x_pred[1,17] + 0.00341421063058078 x_pred[1,18]
   + 0.035807628184557 x_pred[1,19] - 0.069223053753376 x_pred[1,20]
   + 0.0571169704198837 x_pred[1,21] + 0.0550003200769424 x_pred[1,22]
   + 0.0828823447227478 x_pred[1,23] - 0.0371598266065121 x_pred[1,24]
   - 0.0257773026823997 x_pred[1,25] - 0.0861122906208038 x_pred[1,26]
   + 0.1781306266784668 x_pred[1,27] + 0.0772128328680992 x_pred[1,28]
   + 0.1903035938739777 x_pred[1,29] + 0.1685923635959625 x_pred[1,30]
   + 0.1497748792171478 x_pred[1,31] - 0.1987041532993317 x_pred[1,32]
   + 0.0183533448725939 x_pred[1,33] - 0.0675897747278214 x_pred[1,34]
   + 0.0947653278708458 x_pred[1,35] + 0.1019698604941368 x_pred[1,36]
   + sequential0.linear_0.act[0,8] = -0.2382397949695587
 sequential0.linear_0.R244: - 0.0721622332930565 x_pred[1,0]
   - 0.028528144583106 x_pred[1,1] + 0.1298425942659378 x_pred[1,2]
   + 0.1218681931495667 x_pred[1,3] + 0.2013729810714722 x_pred[1,4]
   - 0.0240817721933126 x_pred[1,5] - 0.1238493919372559 x_pred[1,6]
   - 0.0303677953779697 x_pred[1,7] + 0.0149774914607406 x_pred[1,8]
   - 0.1306028664112091 x_pred[1,9] - 0.0937024727463722 x_pred[1,10]
   + 0.0179313160479069 x_pred[1,11] + 0.1786768138408661 x_pred[1,12]
   + 0.1904158443212509 x_pred[1,13] + 0.0236620251089334 x_pred[1,14]
   + 0.0386971831321716 x_pred[1,15] + 0.0663057714700699 x_pred[1,16]
   - 0.2250249981880188 x_pred[1,17] + 0.0240293629467487 x_pred[1,18]
   - 0.1463394910097122 x_pred[1,19] - 0.0136107774451375 x_pred[1,20]
   + 0.104272186756134 x_pred[1,21] + 0.1825519055128098 x_pred[1,22]
   - 9.50899e-05 x_pred[1,23] - 0.1120259612798691 x_pred[1,24]
   - 0.022102776914835 x_pred[1,25] - 0.0355473197996616 x_pred[1,26]
   - 0.0435503646731377 x_pred[1,27] - 0.0383181609213352 x_pred[1,28]
   + 0.0822875425219536 x_pred[1,29] + 0.1574312746524811 x_pred[1,30]
   + 0.0872448235750198 x_pred[1,31] - 0.2033345997333527 x_pred[1,32]
   + 0.0418049357831478 x_pred[1,33] - 0.0366791971027851 x_pred[1,34]
   - 0.00330510921776295 x_pred[1,35] - 0.028140002861619 x_pred[1,36]
   + sequential0.linear_0.act[0,9] = -0.1500314623117447
 sequential0.linear_0.R245: 0.084579274058342 x_pred[1,0]
   - 0.0586859174072742 x_pred[1,1] + 0.2446272820234299 x_pred[1,2]
   + 0.2526925206184387 x_pred[1,3] + 0.298058807849884 x_pred[1,4]
   - 0.1369578242301941 x_pred[1,5] - 0.0086798807606101 x_pred[1,6]
   - 0.152081623673439 x_pred[1,7] - 0.2009905278682709 x_pred[1,8]
   + 0.063241109251976 x_pred[1,9] - 0.1058233380317688 x_pred[1,10]
   + 0.0676974430680275 x_pred[1,11] - 0.2948227226734161 x_pred[1,12]
   + 0.0153925251215696 x_pred[1,13] + 0.00994525849819183 x_pred[1,14]
   + 0.0233925953507423 x_pred[1,15] + 0.1574798077344894 x_pred[1,16]
   + 0.014722621999681 x_pred[1,17] - 0.1803297102451324 x_pred[1,18]
   + 0.2095492333173752 x_pred[1,19] - 0.0956298187375069 x_pred[1,20]
   - 0.0146814156323671 x_pred[1,21] - 0.0116077028214931 x_pred[1,22]
   - 0.0740324109792709 x_pred[1,23] + 0.0225694868713617 x_pred[1,24]
   + 0.044762596487999 x_pred[1,25] - 0.0934339985251427 x_pred[1,26]
   - 0.1235784962773323 x_pred[1,27] - 0.0566921234130859 x_pred[1,28]
   + 0.1448420286178589 x_pred[1,29] - 0.2272857576608658 x_pred[1,30]
   + 0.0597962029278278 x_pred[1,31] - 0.0233466029167175 x_pred[1,32]
   + 0.057044692337513 x_pred[1,33] + 0.1470998376607895 x_pred[1,34]
   + 0.054744578897953 x_pred[1,35] + 0.0210517551749945 x_pred[1,36]
   + sequential0.linear_0.act[0,10] = 0.056146863847971
 sequential0.linear_0.R246: - 0.0356272310018539 x_pred[1,0]
   - 0.2053497135639191 x_pred[1,1] + 0.3596113324165344 x_pred[1,2]
   + 3.054964065551758 x_pred[1,3] + 0.6787427067756653 x_pred[1,4]
   - 0.2427009493112564 x_pred[1,5] - 0.1676738858222961 x_pred[1,6]
   - 0.020173467695713 x_pred[1,7] - 0.0363320559263229 x_pred[1,8]
   + 0.0137143852189183 x_pred[1,9] + 0.0116243083029985 x_pred[1,10]
   + 0.1660475581884384 x_pred[1,11] + 0.1414034366607666 x_pred[1,12]
   - 0.1939023733139038 x_pred[1,13] - 0.0513707399368286 x_pred[1,14]
   + 0.00857429765164852 x_pred[1,15] + 0.3136208355426788 x_pred[1,16]
   + 0.0978214591741562 x_pred[1,17] + 0.0510489158332348 x_pred[1,18]
   + 0.1875700652599335 x_pred[1,19] - 0.167462021112442 x_pred[1,20]
   - 0.0507890842854977 x_pred[1,21] + 0.037169586867094 x_pred[1,22]
   - 0.0141874589025974 x_pred[1,23] + 0.0830065757036209 x_pred[1,24]
   - 0.2551965713500977 x_pred[1,25] - 0.2447929829359055 x_pred[1,26]
   - 0.2724944055080414 x_pred[1,27] - 0.274980217218399 x_pred[1,28]
   - 0.1093887984752655 x_pred[1,29] - 0.1749376803636551 x_pred[1,30]
   + 0.2113165408372879 x_pred[1,31] + 0.2010430693626404 x_pred[1,32]
   + 0.397062748670578 x_pred[1,33] + 0.0250772871077061 x_pred[1,34]
   - 0.1985517144203186 x_pred[1,35] - 0.0777781009674072 x_pred[1,36]
   + sequential0.linear_0.act[0,11] = -0.0368240512907505
 sequential0.linear_0.R247: - 0.1120813563466072 x_pred[1,0]
   - 0.0547089278697968 x_pred[1,1] + 0.0896916165947914 x_pred[1,2]
   + 0.8277840614318848 x_pred[1,3] + 0.1922133713960648 x_pred[1,4]
   + 0.00608761981129646 x_pred[1,5] - 0.126951739192009 x_pred[1,6]
   - 0.0916983857750893 x_pred[1,7] - 0.1591893881559372 x_pred[1,8]
   + 0.1087396889925003 x_pred[1,9] + 0.0455326326191425 x_pred[1,10]
   + 0.0840097144246101 x_pred[1,11] + 0.0269837267696857 x_pred[1,12]
   - 0.10399429500103 x_pred[1,13] + 3.8893654709681869e-04 x_pred[1,14]
   - 0.1408348381519318 x_pred[1,15] + 0.0166718084365129 x_pred[1,16]
   - 0.1490183919668198 x_pred[1,17] + 0.1062789335846901 x_pred[1,18]
   + 0.1554520428180695 x_pred[1,19] + 0.0419293865561485 x_pred[1,20]
   - 0.0228186901658773 x_pred[1,21] + 0.1467771530151367 x_pred[1,22]
   + 0.020130842924118 x_pred[1,23] + 0.141547292470932 x_pred[1,24]
   - 0.0991056859493256 x_pred[1,25] - 0.4870579242706299 x_pred[1,26]
   - 0.1059007942676544 x_pred[1,27] - 0.0776176601648331 x_pred[1,28]
   + 0.1359858363866806 x_pred[1,29] + 0.077189713716507 x_pred[1,30]
   + 0.0255311336368322 x_pred[1,31] + 0.0720909014344215 x_pred[1,32]
   + 0.1482777297496796 x_pred[1,33] - 0.0628337413072586 x_pred[1,34]
   + 0.0217229947447777 x_pred[1,35] - 0.0541076697409153 x_pred[1,36]
   + sequential0.linear_0.act[0,12] = -0.1334034353494644
 sequential0.linear_0.R248: 0.1688646376132965 x_pred[1,0]
   + 0.1530343294143677 x_pred[1,1] + 0.1777344197034836 x_pred[1,2]
   + 0.1998815983533859 x_pred[1,3] + 0.0490884482860565 x_pred[1,4]
   + 0.1412414908409119 x_pred[1,5] - 0.0638624355196953 x_pred[1,6]
   + 0.1459107547998428 x_pred[1,7] + 0.06635682284832 x_pred[1,8]
   - 0.0935415029525757 x_pred[1,9] + 0.0721777006983757 x_pred[1,10]
   - 0.1261023432016373 x_pred[1,11] - 0.0609158538281918 x_pred[1,12]
   + 0.0610715299844742 x_pred[1,13] - 0.1727971285581589 x_pred[1,14]
   - 0.0957005620002747 x_pred[1,15] - 0.0156712662428617 x_pred[1,16]
   - 0.0822372734546661 x_pred[1,17] - 0.00423314142972231 x_pred[1,18]
   - 0.1362567842006683 x_pred[1,19] - 0.0623446404933929 x_pred[1,20]
   + 0.0660792961716652 x_pred[1,21] - 0.1095873489975929 x_pred[1,22]
   + 0.2243869453668594 x_pred[1,23] - 0.00146622967440635 x_pred[1,24]
   - 0.015890596434474 x_pred[1,25] - 0.3440306186676025 x_pred[1,26]
   + 0.0318731181323528 x_pred[1,27] + 0.0906499698758125 x_pred[1,28]
   - 0.1225216388702393 x_pred[1,29] - 0.0255279149860144 x_pred[1,30]
   - 0.111635148525238 x_pred[1,31] - 0.0254971534013748 x_pred[1,32]
   - 0.0947007089853287 x_pred[1,33] - 0.0383149720728397 x_pred[1,34]
   + 0.0478519722819328 x_pred[1,35] + 0.1016595661640167 x_pred[1,36]
   + sequential0.linear_0.act[0,13] = -0.1597146391868591
 sequential0.linear_0.R249: - 0.0518309362232685 x_pred[1,0]
   + 0.1418605893850327 x_pred[1,1] + 0.2104884684085846 x_pred[1,2]
   - 0.00199266127310693 x_pred[1,3] + 0.1513379216194153 x_pred[1,4]
   - 0.1891279667615891 x_pred[1,5] - 0.1480185389518738 x_pred[1,6]
   + 0.1854633986949921 x_pred[1,7] + 0.0469435714185238 x_pred[1,8]
   + 0.0882080122828484 x_pred[1,9] + 0.1049707233905792 x_pred[1,10]
   + 0.1652497053146362 x_pred[1,11] - 0.1839748024940491 x_pred[1,12]
   + 3.8216763641685247e-04 x_pred[1,13] + 0.045669924467802 x_pred[1,14]
   + 0.1082118079066277 x_pred[1,15] + 0.0749591216444969 x_pred[1,16]
   - 0.2267132699489594 x_pred[1,17] + 0.0308228116482496 x_pred[1,18]
   - 0.1803758889436722 x_pred[1,19] - 0.0772590339183807 x_pred[1,20]
   + 0.0654665008187294 x_pred[1,21] + 0.0978657156229019 x_pred[1,22]
   - 0.1584762781858444 x_pred[1,23] + 0.0104976398870349 x_pred[1,24]
   - 0.1743388026952744 x_pred[1,25] + 0.1331921517848969 x_pred[1,26]
   - 0.019125884398818 x_pred[1,27] - 0.00785286258906126 x_pred[1,28]
   + 0.0299903657287359 x_pred[1,29] - 0.0712779611349106 x_pred[1,30]
   - 0.0518290251493454 x_pred[1,31] - 0.0268714502453804 x_pred[1,32]
   + 0.0394856370985508 x_pred[1,33] - 0.0165655072778463 x_pred[1,34]
   + 0.085207998752594 x_pred[1,35] + 0.0418205894529819 x_pred[1,36]
   + sequential0.linear_0.act[0,14] = -0.2706761360168457
 sequential0.linear_0.R250: 0.2383517026901245 x_pred[1,0]
   + 0.0740460678935051 x_pred[1,1] + 0.2198753207921982 x_pred[1,2]
   + 0.1134823933243752 x_pred[1,3] + 0.2043903023004532 x_pred[1,4]
   - 0.0520937107503414 x_pred[1,5] - 0.1601909399032593 x_pred[1,6]
   + 0.1497556120157242 x_pred[1,7] + 0.0220068227499723 x_pred[1,8]
   + 0.0522798150777817 x_pred[1,9] - 0.102088175714016 x_pred[1,10]
   + 0.1674845218658447 x_pred[1,11] - 0.0231457632035017 x_pred[1,12]
   - 0.0227865390479565 x_pred[1,13] + 0.0805801600217819 x_pred[1,14]
   + 0.0750901848077774 x_pred[1,15] - 0.0387976281344891 x_pred[1,16]
   - 0.0899461582303047 x_pred[1,17] + 0.0688468813896179 x_pred[1,18]
   + 0.0488308444619179 x_pred[1,19] - 0.1071529015898705 x_pred[1,20]
   + 0.1506735384464264 x_pred[1,21] + 0.0163404177874327 x_pred[1,22]
   - 0.1342203319072723 x_pred[1,23] + 0.0745954737067223 x_pred[1,24]
   + 0.0493767447769642 x_pred[1,25] - 0.0515465028584003 x_pred[1,26]
   + 0.0274749398231506 x_pred[1,27] + 0.0748793631792068 x_pred[1,28]
   - 0.2384791076183319 x_pred[1,29] + 0.0474756844341755 x_pred[1,30]
   + 0.1088100001215935 x_pred[1,31] - 0.0351021811366081 x_pred[1,32]
   + 0.1566155403852463 x_pred[1,33] - 0.0729070901870728 x_pred[1,34]
   - 0.00750352302566171 x_pred[1,35] - 0.1134073287248611 x_pred[1,36]
   + sequential0.linear_0.act[0,15] = -0.0681830123066902
 sequential0.linear_0.R251: - 0.153873085975647 x_pred[1,0]
   - 0.1259523928165436 x_pred[1,1] + 0.3673829138278961 x_pred[1,2]
   - 0.5473453998565674 x_pred[1,3] - 0.0467431247234344 x_pred[1,4]
   - 0.0203969851136208 x_pred[1,5] - 0.1129557490348816 x_pred[1,6]
   - 0.1370726525783539 x_pred[1,7] + 0.0119192032143474 x_pred[1,8]
   + 0.1196258813142776 x_pred[1,9] + 0.0892525985836983 x_pred[1,10]
   - 0.0224365014582872 x_pred[1,11] - 0.1128413081169128 x_pred[1,12]
   - 0.153448611497879 x_pred[1,13] + 0.1060827970504761 x_pred[1,14]
   + 0.0207499247044325 x_pred[1,15] + 0.1590538620948792 x_pred[1,16]
   + 0.00594733562320471 x_pred[1,17] + 0.00842414889484644 x_pred[1,18]
   + 0.00893748085945845 x_pred[1,19] - 0.0539470799267292 x_pred[1,20]
   - 0.102757602930069 x_pred[1,21] - 0.0725130662322044 x_pred[1,22]
   + 0.0840184688568115 x_pred[1,23] + 0.0420444458723068 x_pred[1,24]
   - 0.016877057030797 x_pred[1,25] - 0.2826428413391113 x_pred[1,26]
   + 0.1000518947839737 x_pred[1,27] + 0.0288558360189199 x_pred[1,28]
   + 0.0311313457787037 x_pred[1,29] - 0.158771276473999 x_pred[1,30]
   - 0.014278681948781 x_pred[1,31] + 0.1251823753118515 x_pred[1,32]
   - 0.1497134417295456 x_pred[1,33] - 0.1731861084699631 x_pred[1,34]
   + 0.0437731929123402 x_pred[1,35] + 0.125256136059761 x_pred[1,36]
   + sequential0.linear_0.act[0,16] = 0.2045646160840988
 sequential0.linear_0.R252: - 0.023804722353816 x_pred[1,0]
   - 0.055144727230072 x_pred[1,1] - 0.00123907660599798 x_pred[1,2]
   + 0.0182730592787266 x_pred[1,3] + 0.2403105050325394 x_pred[1,4]
   - 0.0424220263957977 x_pred[1,5] - 0.0657464638352394 x_pred[1,6]
   + 0.0896097123622894 x_pred[1,7] + 0.0772496685385704 x_pred[1,8]
   - 0.3060369491577148 x_pred[1,9] - 0.1430331170558929 x_pred[1,10]
   - 0.00755751132965088 x_pred[1,11] + 0.0326445214450359 x_pred[1,12]
   - 0.2830415368080139 x_pred[1,13] + 0.2862318754196167 x_pred[1,14]
   + 0.085906945168972 x_pred[1,15] - 0.1314461380243301 x_pred[1,16]
   + 0.0388676300644875 x_pred[1,17] - 7.8351e-05 x_pred[1,18]
   + 0.0569210536777973 x_pred[1,19] - 0.0202859789133072 x_pred[1,20]
   - 2.541074063628912e-04 x_pred[1,21] - 0.0924391373991966 x_pred[1,22]
   + 0.1786312311887741 x_pred[1,23] + 0.1575676649808884 x_pred[1,24]
   + 0.0065508452244103 x_pred[1,25] - 0.184415727853775 x_pred[1,26]
   + 0.1035965606570244 x_pred[1,27] - 0.1061674132943153 x_pred[1,28]
   - 0.1758498847484589 x_pred[1,29] - 0.0590974874794483 x_pred[1,30]
   + 0.1443139612674713 x_pred[1,31] - 0.0226825680583715 x_pred[1,32]
   - 0.0195189919322729 x_pred[1,33] - 0.0549266971647739 x_pred[1,34]
   - 0.1681908518075943 x_pred[1,35] + 0.0212158393114805 x_pred[1,36]
   + sequential0.linear_0.act[0,17] = -0.3081860542297363
 sequential0.linear_0.R253: 0.366994708776474 x_pred[1,0]
   + 0.1336187869310379 x_pred[1,1] + 0.0195738263428211 x_pred[1,2]
   + 0.1700512021780014 x_pred[1,3] + 0.0849417820572853 x_pred[1,4]
   - 0.0853156819939613 x_pred[1,5] + 0.1021076962351799 x_pred[1,6]
   - 0.00152564770542085 x_pred[1,7] + 0.1161315962672234 x_pred[1,8]
   - 0.1330970972776413 x_pred[1,9] - 0.1352057307958603 x_pred[1,10]
   + 0.0707159787416458 x_pred[1,11] - 0.0499589890241623 x_pred[1,12]
   + 0.037140890955925 x_pred[1,13] - 0.0435211956501007 x_pred[1,14]
   - 0.00642109708860517 x_pred[1,15] - 0.0873688608407974 x_pred[1,16]
   - 0.0295387376099825 x_pred[1,17] + 0.0237127151340246 x_pred[1,18]
   + 0.0229261517524719 x_pred[1,19] - 0.0349452011287212 x_pred[1,20]
   - 0.0705328360199928 x_pred[1,21] + 0.00801441725343466 x_pred[1,22]
   - 0.0808247774839401 x_pred[1,23] - 0.1127903386950493 x_pred[1,24]
   - 0.1684947460889816 x_pred[1,25] - 0.0413833446800709 x_pred[1,26]
   - 0.030944412574172 x_pred[1,27] + 0.0607878677546978 x_pred[1,28]
   + 0.1499533653259277 x_pred[1,29] + 0.1719045639038086 x_pred[1,30]
   - 0.1073837801814079 x_pred[1,31] - 0.1969026923179626 x_pred[1,32]
   - 0.0751014053821564 x_pred[1,33] + 0.0832804217934608 x_pred[1,34]
   - 0.0163368713110685 x_pred[1,35] - 0.1835073232650757 x_pred[1,36]
   + sequential0.linear_0.act[0,18] = -0.2024251520633698
 sequential0.linear_0.R254: 0.0443235225975513 x_pred[1,0]
   + 0.0551322661340237 x_pred[1,1] + 0.164956346154213 x_pred[1,2]
   + 0.0471895076334476 x_pred[1,3] + 0.0367990434169769 x_pred[1,4]
   + 0.0826159566640854 x_pred[1,5] + 0.1366326659917831 x_pred[1,6]
   + 0.1325036436319351 x_pred[1,7] + 0.0145075581967831 x_pred[1,8]
   - 0.0611147284507751 x_pred[1,9] - 0.0436703227460384 x_pred[1,10]
   + 0.1131352111697197 x_pred[1,11] + 0.2208317369222641 x_pred[1,12]
   + 0.0911687389016151 x_pred[1,13] - 0.0502637512981892 x_pred[1,14]
   - 0.0744821727275848 x_pred[1,15] - 0.1746299415826797 x_pred[1,16]
   - 0.0938316285610199 x_pred[1,17] - 0.0209566596895456 x_pred[1,18]
   - 0.1137623265385628 x_pred[1,19] + 0.0918381959199905 x_pred[1,20]
   - 0.00805691629648209 x_pred[1,21] + 0.1577181667089462 x_pred[1,22]
   - 0.1311598271131516 x_pred[1,23] + 0.095090277493 x_pred[1,24]
   + 0.0592971555888653 x_pred[1,25] - 0.1868239790201187 x_pred[1,26]
   + 0.0498719364404678 x_pred[1,27] - 0.0500059202313423 x_pred[1,28]
   - 0.0827646180987358 x_pred[1,29] + 0.0158529840409756 x_pred[1,30]
   + 0.0834719315171242 x_pred[1,31] - 5.2182411309331656e-04 x_pred[1,32]
   + 0.0159293599426746 x_pred[1,33] - 0.117925651371479 x_pred[1,34]
   + 0.0307503715157509 x_pred[1,35] + 0.00875976029783487 x_pred[1,36]
   + sequential0.linear_0.act[0,19] = -0.1276435703039169
 sequential0.linear_0.R255: 0.1269793808460236 x_pred[1,0]
   + 0.1607723534107208 x_pred[1,1] + 0.1866833120584488 x_pred[1,2]
   + 0.0373129434883595 x_pred[1,3] + 0.1130559593439102 x_pred[1,4]
   - 0.0107543263584375 x_pred[1,5] + 0.048794362694025 x_pred[1,6]
   + 0.1420910507440567 x_pred[1,7] + 0.1498628258705139 x_pred[1,8]
   + 0.0255009271204472 x_pred[1,9] - 0.0807496458292007 x_pred[1,10]
   - 0.0704218596220016 x_pred[1,11] + 0.0600882843136787 x_pred[1,12]
   + 0.1018130779266357 x_pred[1,13] - 0.1237384378910065 x_pred[1,14]
   + 0.0869396030902863 x_pred[1,15] - 0.1612439453601837 x_pred[1,16]
   + 0.0253299959003925 x_pred[1,17] + 0.0265521835535765 x_pred[1,18]
   + 0.0636022388935089 x_pred[1,19] - 0.0856177657842636 x_pred[1,20]
   + 0.1536982357501984 x_pred[1,21] + 0.1131087467074394 x_pred[1,22]
   - 0.098710261285305 x_pred[1,23] - 0.0149691263213754 x_pred[1,24]
   + 0.0682484433054924 x_pred[1,25] + 0.2048550993204117 x_pred[1,26]
   + 0.1002573817968369 x_pred[1,27] - 0.0534452311694622 x_pred[1,28]
   + 0.0792609080672264 x_pred[1,29] - 0.0454020835459232 x_pred[1,30]
   - 0.0657409802079201 x_pred[1,31] - 0.0753029435873032 x_pred[1,32]
   - 0.035481296479702 x_pred[1,33] - 0.0629022046923637 x_pred[1,34]
   + 0.0918254405260086 x_pred[1,35] - 0.1040720045566559 x_pred[1,36]
   + sequential0.linear_0.act[0,20] = -0.00369733129628003
 sequential0.linear_0.R256: 0.1496044993400574 x_pred[1,0]
   + 0.0720288455486298 x_pred[1,1] + 0.2443371713161469 x_pred[1,2]
   + 0.00203796080313623 x_pred[1,3] + 0.3374221622943878 x_pred[1,4]
   - 0.074983648955822 x_pred[1,5] + 0.0772538408637047 x_pred[1,6]
   - 0.1711632162332535 x_pred[1,7] - 0.1253777146339417 x_pred[1,8]
   - 0.0548918172717094 x_pred[1,9] + 0.0158128086477518 x_pred[1,10]
   + 0.0330910049378872 x_pred[1,11] - 0.0910022780299187 x_pred[1,12]
   + 0.1247100383043289 x_pred[1,13] - 0.0745609104633331 x_pred[1,14]
   + 0.152510017156601 x_pred[1,15] - 0.1048303842544556 x_pred[1,16]
   - 0.0495892614126205 x_pred[1,17] + 0.0448755770921707 x_pred[1,18]
   + 0.1556045711040497 x_pred[1,19] - 0.1177057102322578 x_pred[1,20]
   + 0.0534403473138809 x_pred[1,21] + 0.1065315157175064 x_pred[1,22]
   + 0.1749351024627686 x_pred[1,23] + 0.0422091 x_pred[1,24]
   + 0.1313003897666931 x_pred[1,25] - 0.053356196731329 x_pred[1,26]
   - 0.0835464224219322 x_pred[1,27] + 0.1274773776531219 x_pred[1,28]
   - 0.0569128692150116 x_pred[1,29] + 0.0919265002012253 x_pred[1,30]
   + 0.0998300835490227 x_pred[1,31] + 0.1500585079193115 x_pred[1,32]
   - 0.0174638517200947 x_pred[1,33] + 0.0955565646290779 x_pred[1,34]
   - 0.1162822395563126 x_pred[1,35] + 0.0337187722325325 x_pred[1,36]
   + sequential0.linear_0.act[0,21] = 0.0981837958097458
 sequential0.linear_0.R257: 0.121806763112545 x_pred[1,0]
   + 0.0458648018538952 x_pred[1,1] - 0.0455434657633305 x_pred[1,2]
   - 0.4892504811286926 x_pred[1,3] - 0.5580691695213318 x_pred[1,4]
   + 0.00421022297814488 x_pred[1,5] - 0.0759840086102486 x_pred[1,6]
   - 0.0454827584326267 x_pred[1,7] - 0.0173185523599386 x_pred[1,8]
   + 0.1072196513414383 x_pred[1,9] - 0.1062209382653236 x_pred[1,10]
   - 0.0167427472770214 x_pred[1,11] + 0.1216928660869598 x_pred[1,12]
   + 0.0183443389832973 x_pred[1,13] - 0.065672479569912 x_pred[1,14]
   + 0.0117441797628999 x_pred[1,15] - 0.1595298200845718 x_pred[1,16]
   - 0.0347680523991585 x_pred[1,17] - 0.0923823788762093 x_pred[1,18]
   - 0.1157712340354919 x_pred[1,19] + 0.0261867512017488 x_pred[1,20]
   + 0.0951362475752831 x_pred[1,21] + 0.0212234482169151 x_pred[1,22]
   + 0.0461651496589184 x_pred[1,23] - 0.1328298300504684 x_pred[1,24]
   - 0.0818460583686829 x_pred[1,25] - 0.3059455752372742 x_pred[1,26]
   - 0.1201866567134857 x_pred[1,27] + 0.1548963636159897 x_pred[1,28]
   - 0.078863188624382 x_pred[1,29] + 0.1641432791948318 x_pred[1,30]
   + 0.0516194440424442 x_pred[1,31] - 0.0623445399105549 x_pred[1,32]
   - 0.1697405874729156 x_pred[1,33] - 0.0317532531917095 x_pred[1,34]
   - 0.00741409650072455 x_pred[1,35] + 0.0486922189593315 x_pred[1,36]
   + sequential0.linear_0.act[0,22] = -0.2107052356004715
 sequential0.linear_0.R258: 0.1863777339458466 x_pred[1,0]
   + 0.5784351229667664 x_pred[1,1] + 0.1029182896018028 x_pred[1,2]
   - 2.639404296875 x_pred[1,3] - 3.660310983657837 x_pred[1,4]
   + 0.00648902356624603 x_pred[1,5] - 0.00878077745437622 x_pred[1,6]
   + 0.0204768050462008 x_pred[1,7] + 0.0149980867281556 x_pred[1,8]
   - 0.0165063198655844 x_pred[1,9] - 0.020857710391283 x_pred[1,10]
   - 0.0278015304356813 x_pred[1,11] - 0.0619345679879189 x_pred[1,12]
   - 0.00358612602576613 x_pred[1,13] + 0.00811073742806911 x_pred[1,14]
   + 0.0435691364109516 x_pred[1,15] - 0.0651922300457954 x_pred[1,16]
   - 0.0203986559063196 x_pred[1,17] - 0.013856808654964 x_pred[1,18]
   - 0.0100055476650596 x_pred[1,19] + 0.00138630450237542 x_pred[1,20]
   + 0.0369715318083763 x_pred[1,21] - 0.0229296553879976 x_pred[1,22]
   + 0.00219552614726126 x_pred[1,23] - 0.0540640167891979 x_pred[1,24]
   - 4.6861643204465508e-04 x_pred[1,25] - 0.1165649518370628 x_pred[1,26]
   - 0.00734892394393682 x_pred[1,27] - 0.00902814324945211 x_pred[1,28]
   + 0.0367972776293755 x_pred[1,29] + 0.0382747165858746 x_pred[1,30]
   + 0.0247561726719141 x_pred[1,31] - 0.0624698027968407 x_pred[1,32]
   - 0.0225468520075083 x_pred[1,33] - 0.0474210791289806 x_pred[1,34]
   + 0.037850633263588 x_pred[1,35] - 0.00897586718201637 x_pred[1,36]
   + sequential0.linear_0.act[0,23] = -0.3846419453620911
 sequential0.linear_0.R259: 0.1717898845672607 x_pred[1,0]
   + 0.0856655836105347 x_pred[1,1] + 0.066630594432354 x_pred[1,2]
   + 0.0578653961420059 x_pred[1,3] + 0.0900456011295319 x_pred[1,4]
   - 0.1569283604621887 x_pred[1,5] - 0.0877887457609177 x_pred[1,6]
   + 0.0106595298275352 x_pred[1,7] + 0.1315632462501526 x_pred[1,8]
   - 0.1419938057661057 x_pred[1,9] - 0.0234351828694344 x_pred[1,10]
   + 0.1417789161205292 x_pred[1,11] + 0.0595375671982765 x_pred[1,12]
   - 0.0246625281870365 x_pred[1,13] - 0.08811866492033 x_pred[1,14]
   + 0.0201689228415489 x_pred[1,15] - 0.1304132789373398 x_pred[1,16]
   - 0.1315651535987854 x_pred[1,17] - 0.1510309129953384 x_pred[1,18]
   - 0.06716538220644 x_pred[1,19] + 0.1216668784618378 x_pred[1,20]
   - 0.0872069224715233 x_pred[1,21] - 0.043647974729538 x_pred[1,22]
   - 0.1307603418827057 x_pred[1,23] + 0.0947941467165947 x_pred[1,24]
   - 0.1077375113964081 x_pred[1,25] + 0.057049535214901 x_pred[1,26]
   - 0.0785598382353783 x_pred[1,27] - 0.1126406565308571 x_pred[1,28]
   + 0.0377761088311672 x_pred[1,29] + 0.1043693274259567 x_pred[1,30]
   + 0.0921718031167984 x_pred[1,31] - 0.1323919147253036 x_pred[1,32]
   + 0.1174454167485237 x_pred[1,33] + 0.0579331107437611 x_pred[1,34]
   + 0.1001301780343056 x_pred[1,35] - 0.0120951877906919 x_pred[1,36]
   + sequential0.linear_0.act[0,24] = -0.1139468997716904
 sequential0.linear_0.R260: 0.1614183187484741 x_pred[1,0]
   + 0.0544926337897778 x_pred[1,1] - 0.0489406697452068 x_pred[1,2]
   - 0.0804229453206062 x_pred[1,3] - 0.0832768529653549 x_pred[1,4]
   + 0.0983168333768845 x_pred[1,5] + 0.000733168 x_pred[1,6]
   - 0.00158327317330986 x_pred[1,7] + 0.0796126648783684 x_pred[1,8]
   - 0.0259175766259432 x_pred[1,9] - 0.0521342605352402 x_pred[1,10]
   - 0.0839435607194901 x_pred[1,11] - 0.0483277067542076 x_pred[1,12]
   - 0.0269252806901932 x_pred[1,13] - 0.1597671955823898 x_pred[1,14]
   - 0.073106586933136 x_pred[1,15] - 0.0239911917597055 x_pred[1,16]
   - 0.0307948105037212 x_pred[1,17] + 0.0279048159718513 x_pred[1,18]
   - 0.052903451025486 x_pred[1,19] + 0.0430612005293369 x_pred[1,20]
   + 0.1651121079921722 x_pred[1,21] - 0.0436200350522995 x_pred[1,22]
   + 0.0758015513420105 x_pred[1,23] - 0.0822435542941093 x_pred[1,24]
   - 0.0993453338742256 x_pred[1,25] + 0.00865031871944666 x_pred[1,26]
   - 0.0318282023072243 x_pred[1,27] + 0.1324739754199982 x_pred[1,28]
   + 0.0286372750997543 x_pred[1,29] + 0.09860510379076 x_pred[1,30]
   + 0.0286163557320833 x_pred[1,31] - 0.0889120250940323 x_pred[1,32]
   - 0.1181850358843803 x_pred[1,33] + 0.0439892821013927 x_pred[1,34]
   - 0.064712792634964 x_pred[1,35] - 0.1613864302635193 x_pred[1,36]
   + sequential0.linear_0.act[0,25] = -0.2037689685821533
 sequential0.linear_0.R261: 0.1301825493574142 x_pred[1,0]
   + 0.0747460424900055 x_pred[1,1] - 0.359748363494873 x_pred[1,2]
   + 1.258378148078918 x_pred[1,3] + 1.971099138259888 x_pred[1,4]
   - 0.10258799046278 x_pred[1,5] + 0.0115560488775373 x_pred[1,6]
   - 0.0464465357363224 x_pred[1,7] + 0.0626722276210785 x_pred[1,8]
   + 0.1725036948919296 x_pred[1,9] - 0.0540289394557476 x_pred[1,10]
   - 0.0153507152572274 x_pred[1,11] - 0.0865471139550209 x_pred[1,12]
   + 0.1979085654020309 x_pred[1,13] + 0.0840922445058823 x_pred[1,14]
   + 0.0144198751077056 x_pred[1,15] + 0.0498837828636169 x_pred[1,16]
   - 0.0308607704937458 x_pred[1,17] + 0.0685973465442657 x_pred[1,18]
   - 0.0302345659583807 x_pred[1,19] - 0.0204685740172863 x_pred[1,20]
   + 0.068140983581543 x_pred[1,21] + 0.0618818178772926 x_pred[1,22]
   - 0.1264642179012299 x_pred[1,23] + 0.0338423848152161 x_pred[1,24]
   - 0.1152095943689346 x_pred[1,25] - 0.4333411455154419 x_pred[1,26]
   + 0.2806684970855713 x_pred[1,27] + 0.318197637796402 x_pred[1,28]
   + 0.2159294486045837 x_pred[1,29] + 0.0536797270178795 x_pred[1,30]
   - 0.0249773915857077 x_pred[1,31] - 0.1388970911502838 x_pred[1,32]
   - 0.1422081291675568 x_pred[1,33] + 0.2581603229045868 x_pred[1,34]
   + 0.2662450671195984 x_pred[1,35] - 0.0300382617861032 x_pred[1,36]
   + sequential0.linear_0.act[0,26] = -0.1129545792937279
 sequential0.linear_0.R262: 0.143667608499527 x_pred[1,0]
   + 0.108709380030632 x_pred[1,1] - 0.577176570892334 x_pred[1,2]
   + 1.779571652412415 x_pred[1,3] + 2.844842910766602 x_pred[1,4]
   - 9.6364261116832495e-04 x_pred[1,5] - 0.0511276572942734 x_pred[1,6]
   + 0.0245853196829557 x_pred[1,7] - 0.0335181094706059 x_pred[1,8]
   - 0.0198966171592474 x_pred[1,9] + 0.0857501477003098 x_pred[1,10]
   - 0.0337786860764027 x_pred[1,11] + 0.000308979 x_pred[1,12]
   + 0.0846873372793198 x_pred[1,13] - 0.025545010343194 x_pred[1,14]
   + 0.0377370677888393 x_pred[1,15] - 0.125206470489502 x_pred[1,16]
   - 0.028365096077323 x_pred[1,17] - 0.0112625947222114 x_pred[1,18]
   - 0.0697828754782677 x_pred[1,19] + 0.00410504126921296 x_pred[1,20]
   - 0.0191502906382084 x_pred[1,21] + 0.0151745472103357 x_pred[1,22]
   - 0.00510729663074017 x_pred[1,23] - 0.0187036599963903 x_pred[1,24]
   - 0.0126015841960907 x_pred[1,25] - 0.2535689473152161 x_pred[1,26]
   + 0.0817534402012825 x_pred[1,27] + 0.1201257482171059 x_pred[1,28]
   + 0.0363500118255615 x_pred[1,29] + 0.0252357982099056 x_pred[1,30]
   - 0.0444130562245846 x_pred[1,31] - 0.0432151667773724 x_pred[1,32]
   + 0.0561323389410973 x_pred[1,33] + 0.014357409439981 x_pred[1,34]
   + 0.0245433524250984 x_pred[1,35] + 0.0050602019764483 x_pred[1,36]
   + sequential0.linear_0.act[0,27] = -0.0293350722640753
 sequential0.linear_0.R263: 0.0285526271909475 x_pred[1,0]
   - 0.0143376942723989 x_pred[1,1] - 0.0122855678200722 x_pred[1,2]
   + 0.2875635623931885 x_pred[1,3] + 0.2339122742414474 x_pred[1,4]
   - 0.1859095692634583 x_pred[1,5] - 0.0019381504971534 x_pred[1,6]
   + 0.1626774221658707 x_pred[1,7] + 0.00571910804137588 x_pred[1,8]
   + 0.2215430289506912 x_pred[1,9] + 0.1523762494325638 x_pred[1,10]
   + 0.0704910084605217 x_pred[1,11] - 0.1222578585147858 x_pred[1,12]
   + 0.1582062691450119 x_pred[1,13] - 0.0353563167154789 x_pred[1,14]
   - 0.0332773365080357 x_pred[1,15] - 0.2557502090930939 x_pred[1,16]
   - 0.1174073815345764 x_pred[1,17] - 0.1205888688564301 x_pred[1,18]
   + 0.1049409881234169 x_pred[1,19] - 0.1830761581659317 x_pred[1,20]
   - 0.0612934194505215 x_pred[1,21] + 0.1128858998417854 x_pred[1,22]
   - 0.0283220894634724 x_pred[1,23] - 0.1006525829434395 x_pred[1,24]
   - 0.2491852939128876 x_pred[1,25] - 0.0612728111445904 x_pred[1,26]
   + 0.0361325591802597 x_pred[1,27] + 0.2521624863147736 x_pred[1,28]
   + 0.1401472985744476 x_pred[1,29] - 0.113478921353817 x_pred[1,30]
   + 0.0861756652593613 x_pred[1,31] - 0.0317244566977024 x_pred[1,32]
   - 0.0916139632463455 x_pred[1,33] - 0.1446594446897507 x_pred[1,34]
   + 0.00686609698459506 x_pred[1,35] - 0.0396492294967175 x_pred[1,36]
   + sequential0.linear_0.act[0,28] = -0.1270049959421158
 sequential0.linear_0.R264: 0.0520297363400459 x_pred[1,0]
   + 0.1183889731764793 x_pred[1,1] - 0.0148236947134137 x_pred[1,2]
   - 0.1497374176979065 x_pred[1,3] + 0.0279491078108549 x_pred[1,4]
   - 0.2479732781648636 x_pred[1,5] - 0.00581412715837359 x_pred[1,6]
   - 0.0469447858631611 x_pred[1,7] + 0.0926129594445229 x_pred[1,8]
   - 0.0956500992178917 x_pred[1,9] + 0.1769358664751053 x_pred[1,10]
   + 0.2922421097755432 x_pred[1,11] - 0.1370718777179718 x_pred[1,12]
   + 0.037250243127346 x_pred[1,13] - 0.2867948710918427 x_pred[1,14]
   + 0.0699066668748856 x_pred[1,15] + 0.1734009832143784 x_pred[1,16]
   - 0.035888247191906 x_pred[1,17] - 0.1245714500546455 x_pred[1,18]
   + 0.00468429224565625 x_pred[1,19] - 0.3173681199550629 x_pred[1,20]
   - 0.0925409495830536 x_pred[1,21] - 0.2663024663925171 x_pred[1,22]
   + 0.053326316177845 x_pred[1,23] - 0.0736453831195831 x_pred[1,24]
   - 0.3066446781158447 x_pred[1,25] - 0.1234511807560921 x_pred[1,26]
   + 0.0257579870522022 x_pred[1,27] + 0.2516472637653351 x_pred[1,28]
   + 0.0606784410774708 x_pred[1,29] + 0.2319139689207077 x_pred[1,30]
   + 0.0801257193088531 x_pred[1,31] - 0.0314803421497345 x_pred[1,32]
   + 0.0520978718996048 x_pred[1,33] + 0.0780519023537636 x_pred[1,34]
   + 0.00616082 x_pred[1,35] + 0.2753784358501434 x_pred[1,36]
   + sequential0.linear_0.act[0,29] = -0.1321980208158493
 sequential0.linear_0.R265: 0.1016412973403931 x_pred[1,0]
   + 0.1097281128168106 x_pred[1,1] + 0.00579383177682757 x_pred[1,2]
   + 0.2397492378950119 x_pred[1,3] + 0.1885965019464493 x_pred[1,4]
   + 0.038512110710144 x_pred[1,5] + 0.0170836113393307 x_pred[1,6]
   - 0.1098364666104317 x_pred[1,7] - 9.9976116325706244e-04 x_pred[1,8]
   + 0.0377160087227821 x_pred[1,9] + 0.2474161982536316 x_pred[1,10]
   + 0.058831725269556 x_pred[1,11] + 0.1418668478727341 x_pred[1,12]
   + 0.0457499586045742 x_pred[1,13] + 0.00789471715688705 x_pred[1,14]
   + 0.0651285275816917 x_pred[1,15] + 0.0641111060976982 x_pred[1,16]
   + 0.1509031057357788 x_pred[1,17] + 0.2502215504646301 x_pred[1,18]
   + 0.175027996301651 x_pred[1,19] - 0.0554678961634636 x_pred[1,20]
   - 0.2313069254159927 x_pred[1,21] + 0.0296265352517366 x_pred[1,22]
   + 0.1440256983041763 x_pred[1,23] + 0.1697332412004471 x_pred[1,24]
   - 0.1479977071285248 x_pred[1,25] - 0.0778003707528114 x_pred[1,26]
   - 0.2423468381166458 x_pred[1,27] - 0.0634988993406296 x_pred[1,28]
   + 0.0610373541712761 x_pred[1,29] + 0.0667310804128647 x_pred[1,30]
   - 0.0720897689461708 x_pred[1,31] + 0.0129692777991295 x_pred[1,32]
   - 0.0603069476783276 x_pred[1,33] - 0.1257126182317734 x_pred[1,34]
   - 0.00349017046391964 x_pred[1,35] - 0.2159160524606705 x_pred[1,36]
   + sequential0.linear_0.act[0,30] = -0.190717339515686
 sequential0.linear_0.R266: 0.0436912216246128 x_pred[1,0]
   - 0.041968647390604 x_pred[1,1] + 0.0665165930986404 x_pred[1,2]
   - 0.0649906694889069 x_pred[1,3] + 0.1789857447147369 x_pred[1,4]
   - 0.2076687961816788 x_pred[1,5] - 0.0923251509666443 x_pred[1,6]
   - 0.1451222449541092 x_pred[1,7] - 0.1328974515199661 x_pred[1,8]
   + 0.1304693073034286 x_pred[1,9] + 0.1482299119234085 x_pred[1,10]
   + 0.3455438911914825 x_pred[1,11] - 0.0398586839437485 x_pred[1,12]
   + 0.1055397614836693 x_pred[1,13] - 0.2570085823535919 x_pred[1,14]
   - 0.0775736197829247 x_pred[1,15] - 0.114536315202713 x_pred[1,16]
   - 0.1219584494829178 x_pred[1,17] - 0.1685598641633987 x_pred[1,18]
   + 0.2247642576694489 x_pred[1,19] - 0.1017246097326279 x_pred[1,20]
   - 0.112112820148468 x_pred[1,21] - 0.0800826177000999 x_pred[1,22]
   - 0.0708637908101082 x_pred[1,23] + 0.2310397177934647 x_pred[1,24]
   - 0.1515641212463379 x_pred[1,25] + 0.0419960543513298 x_pred[1,26]
   - 0.070035807788372 x_pred[1,27] + 0.0844616964459419 x_pred[1,28]
   + 0.0784652307629585 x_pred[1,29] + 0.1634123474359512 x_pred[1,30]
   + 0.1591645926237106 x_pred[1,31] - 0.086686298251152 x_pred[1,32]
   + 0.0842741653323174 x_pred[1,33] - 0.1760628074407578 x_pred[1,34]
   + 0.0439373664557934 x_pred[1,35] + 0.0328092984855175 x_pred[1,36]
   + sequential0.linear_0.act[0,31] = -0.1023991107940674
 sequential0.linear_0.R267: 0.1748703420162201 x_pred[1,0]
   + 0.7938550114631653 x_pred[1,1] + 0.1706898659467697 x_pred[1,2]
   - 2.605311155319214 x_pred[1,3] - 4.514608860015869 x_pred[1,4]
   - 0.0141087621450424 x_pred[1,5] + 0.00924771465361118 x_pred[1,6]
   - 0.0308866687119007 x_pred[1,7] - 0.0116581181064248 x_pred[1,8]
   + 0.03325130417943 x_pred[1,9] + 0.0193712301552296 x_pred[1,10]
   + 0.00462111318483949 x_pred[1,11] + 0.0258820205926895 x_pred[1,12]
   + 0.0259691439568996 x_pred[1,13] + 0.00704274419695139 x_pred[1,14]
   - 0.0397186689078808 x_pred[1,15] - 0.0144027750939131 x_pred[1,16]
   + 0.0227724723517895 x_pred[1,17] + 0.0171696878969669 x_pred[1,18]
   - 0.0024011495988816 x_pred[1,19] - 0.0152713153511286 x_pred[1,20]
   - 0.0149483559653163 x_pred[1,21] + 0.0337579138576984 x_pred[1,22]
   + 0.00420713936910033 x_pred[1,23] + 0.0331488512456417 x_pred[1,24]
   - 0.0250298362225294 x_pred[1,25] - 0.0513826310634613 x_pred[1,26]
   + 0.0286809150129557 x_pred[1,27] + 0.0359092280268669 x_pred[1,28]
   - 0.00587178766727448 x_pred[1,29] - 0.0162661131471395 x_pred[1,30]
   - 0.00257336441427469 x_pred[1,31] + 0.0219980217516422 x_pred[1,32]
   - 0.00696552265435457 x_pred[1,33] + 0.0448076389729977 x_pred[1,34]
   - 0.00859360862523317 x_pred[1,35] - 0.0193465147167444 x_pred[1,36]
   + sequential0.linear_0.act[0,32] = -0.3559010326862335
 sequential0.linear_0.R268: 0.284015417098999 x_pred[1,0]
   + 0.1142578795552254 x_pred[1,1] + 0.2500997185707092 x_pred[1,2]
   + 5.1566580077633262e-04 x_pred[1,3] + 0.0950482562184334 x_pred[1,4]
   - 0.0615419447422028 x_pred[1,5] - 0.1674373000860214 x_pred[1,6]
   + 0.1568282693624496 x_pred[1,7] - 0.0515748560428619 x_pred[1,8]
   - 0.119763545691967 x_pred[1,9] + 0.0936349779367447 x_pred[1,10]
   + 0.2200275510549545 x_pred[1,11] + 0.0955385863780975 x_pred[1,12]
   + 0.0467539839446545 x_pred[1,13] - 0.1552881896495819 x_pred[1,14]
   + 0.0714332908391953 x_pred[1,15] - 0.2754037976264954 x_pred[1,16]
   - 0.1056772321462631 x_pred[1,17] + 0.0819093436002731 x_pred[1,18]
   - 0.0751673206686974 x_pred[1,19] - 0.0274749435484409 x_pred[1,20]
   + 0.0221485979855061 x_pred[1,21] + 0.1461725234985352 x_pred[1,22]
   + 0.030538983643055 x_pred[1,23] + 0.0844171494245529 x_pred[1,24]
   - 0.1661184579133987 x_pred[1,25] + 0.1399763971567154 x_pred[1,26]
   + 0.1376240104436874 x_pred[1,27] - 0.0679463148117065 x_pred[1,28]
   + 0.0127227678894997 x_pred[1,29] + 0.0526002012193203 x_pred[1,30]
   + 0.00414752913638949 x_pred[1,31] - 0.0884829461574554 x_pred[1,32]
   + 0.00363670941442251 x_pred[1,33] - 0.1660885661840439 x_pred[1,34]
   + 0.1088427603244781 x_pred[1,35] + 0.0160367898643017 x_pred[1,36]
   + sequential0.linear_0.act[0,33] = -0.00517734279856086
 sequential0.linear_0.R269: 0.0208739582449198 x_pred[1,0]
   + 0.0978177636861801 x_pred[1,1] + 0.0808629468083382 x_pred[1,2]
   + 0.1110989451408386 x_pred[1,3] - 0.0420956648886204 x_pred[1,4]
   + 0.1148408949375153 x_pred[1,5] - 0.1059506759047508 x_pred[1,6]
   - 0.0461748093366623 x_pred[1,7] - 0.1336457878351212 x_pred[1,8]
   - 0.1263072937726974 x_pred[1,9] + 0.1143670380115509 x_pred[1,10]
   + 0.049482274800539 x_pred[1,11] - 0.1280487924814224 x_pred[1,12]
   + 0.0947712287306786 x_pred[1,13] + 0.0285176150500774 x_pred[1,14]
   - 0.0624757707118988 x_pred[1,15] + 0.0849491357803345 x_pred[1,16]
   + 0.1054922863841057 x_pred[1,17] - 0.1130848675966263 x_pred[1,18]
   - 0.012593231163919 x_pred[1,19] - 0.0477895513176918 x_pred[1,20]
   + 0.0449256673455238 x_pred[1,21] - 0.1228472366929054 x_pred[1,22]
   + 0.0927827283740044 x_pred[1,23] - 0.1050835102796555 x_pred[1,24]
   - 0.00681178038939834 x_pred[1,25] - 0.053992971777916 x_pred[1,26]
   + 0.033735603094101 x_pred[1,27] - 0.0915748551487923 x_pred[1,28]
   + 0.0955983549356461 x_pred[1,29] - 0.0731242448091507 x_pred[1,30]
   - 0.143571138381958 x_pred[1,31] - 0.058776218444109 x_pred[1,32]
   + 0.0611172020435333 x_pred[1,33] - 0.0480046011507511 x_pred[1,34]
   - 0.0583427920937538 x_pred[1,35] - 0.0669948905706406 x_pred[1,36]
   + sequential0.linear_0.act[0,34] = -0.0293170679360628
 sequential0.linear_0.R270: 0.0394701883196831 x_pred[1,0]
   + 0.0523564778268337 x_pred[1,1] - 0.0186183657497168 x_pred[1,2]
   - 0.0244200173765421 x_pred[1,3] - 0.03672169521451 x_pred[1,4]
   - 0.133389875292778 x_pred[1,5] - 0.1751452535390854 x_pred[1,6]
   - 0.073305644094944 x_pred[1,7] - 0.126703292131424 x_pred[1,8]
   - 0.1575522273778915 x_pred[1,9] - 0.0777758285403252 x_pred[1,10]
   + 0.0496478565037251 x_pred[1,11] + 0.2017521560192108 x_pred[1,12]
   + 0.1635042577981949 x_pred[1,13] - 0.0730725228786469 x_pred[1,14]
   + 0.1342575401067734 x_pred[1,15] - 0.1185059249401093 x_pred[1,16]
   - 0.1370880901813507 x_pred[1,17] + 0.1666359752416611 x_pred[1,18]
   + 0.0528581254184246 x_pred[1,19] - 0.1756718903779984 x_pred[1,20]
   - 0.0937647372484207 x_pred[1,21] + 0.0275753941386938 x_pred[1,22]
   + 0.0758458226919174 x_pred[1,23] + 0.2377379387617111 x_pred[1,24]
   + 0.0251204036176205 x_pred[1,25] + 0.00977200828492641 x_pred[1,26]
   - 0.1699215620756149 x_pred[1,27] - 0.0856133848428726 x_pred[1,28]
   - 0.0901108980178833 x_pred[1,29] - 0.1797345578670502 x_pred[1,30]
   + 0.2484104633331299 x_pred[1,31] - 0.0146534396335483 x_pred[1,32]
   + 0.0740789249539375 x_pred[1,33] + 0.1351387202739716 x_pred[1,34]
   - 0.0259463358670473 x_pred[1,35] - 0.0802659690380096 x_pred[1,36]
   + sequential0.linear_0.act[0,35] = -0.1515604555606842
 sequential0.linear_0.R271: - 0.1132688894867897 x_pred[1,0]
   + 0.0691371634602547 x_pred[1,1] + 0.3663012385368347 x_pred[1,2]
   - 1.776074171066284 x_pred[1,3] - 0.8800661563873291 x_pred[1,4]
   + 0.0242237318307161 x_pred[1,5] + 0.1185334548354149 x_pred[1,6]
   - 0.1509844362735748 x_pred[1,7] - 0.0303554087877274 x_pred[1,8]
   + 0.0484085381031036 x_pred[1,9] + 0.0660793706774712 x_pred[1,10]
   + 0.1333612352609634 x_pred[1,11] - 0.0268691871315241 x_pred[1,12]
   + 0.0976067185401917 x_pred[1,13] + 7.252376526594162e-04 x_pred[1,14]
   - 0.0870450660586357 x_pred[1,15] + 0.1804530471563339 x_pred[1,16]
   + 0.0854274556040764 x_pred[1,17] + 0.1249599009752274 x_pred[1,18]
   - 0.0338208563625813 x_pred[1,19] - 0.0252209547907114 x_pred[1,20]
   - 0.0510164685547352 x_pred[1,21] - 0.078911580145359 x_pred[1,22]
   + 0.1775883734226227 x_pred[1,23] - 0.025728976354003 x_pred[1,24]
   - 0.0891512408852577 x_pred[1,25] - 0.222146287560463 x_pred[1,26]
   - 0.1488407105207443 x_pred[1,27] - 0.0780447348952293 x_pred[1,28]
   + 0.0847553163766861 x_pred[1,29] + 0.0677866339683533 x_pred[1,30]
   + 0.0703228190541267 x_pred[1,31] - 0.0225871633738279 x_pred[1,32]
   - 0.1562030166387558 x_pred[1,33] - 0.1088002622127533 x_pred[1,34]
   + 0.064136728644371 x_pred[1,35] + 0.124604195356369 x_pred[1,36]
   + sequential0.linear_0.act[0,36] = 0.1002114117145538
 sequential0.linear_0.R272: 0.0830351859331131 x_pred[1,0]
   + 0.075458712875843 x_pred[1,1] + 0.3477288484573364 x_pred[1,2]
   + 0.5866279602050781 x_pred[1,3] + 0.4210852384567261 x_pred[1,4]
   - 0.0384848825633526 x_pred[1,5] + 0.0324375554919243 x_pred[1,6]
   + 0.2024605423212051 x_pred[1,7] + 0.040321446955204 x_pred[1,8]
   - 0.1972138434648514 x_pred[1,9] + 0.1458038985729218 x_pred[1,10]
   - 0.0799118429422379 x_pred[1,11] + 0.208269864320755 x_pred[1,12]
   + 0.1422582566738129 x_pred[1,13] - 0.1149051636457443 x_pred[1,14]
   + 0.1426683515310287 x_pred[1,15] - 0.0390763320028782 x_pred[1,16]
   + 0.1027665734291077 x_pred[1,17] - 0.108216255903244 x_pred[1,18]
   - 0.1187693253159523 x_pred[1,19] - 0.139564573764801 x_pred[1,20]
   - 0.1082907766103745 x_pred[1,21] - 0.0378532335162163 x_pred[1,22]
   + 0.1305153667926788 x_pred[1,23] + 0.1289285272359848 x_pred[1,24]
   - 0.0972575098276138 x_pred[1,25] - 0.0800302848219872 x_pred[1,26]
   + 0.0962094441056252 x_pred[1,27] + 0.1677803993225098 x_pred[1,28]
   - 0.1054168865084648 x_pred[1,29] + 0.00971975084394217 x_pred[1,30]
   + 0.0521563701331615 x_pred[1,31] - 0.1956189721822739 x_pred[1,32]
   - 0.0667314976453781 x_pred[1,33] - 0.070423997938633 x_pred[1,34]
   - 0.07194983959198 x_pred[1,35] - 0.019202645868063 x_pred[1,36]
   + sequential0.linear_0.act[0,37] = -0.0702817291021347
 sequential0.linear_0.R273: - 0.4632296860218048 x_pred[1,0]
   + 0.3382403254508972 x_pred[1,1] + 0.2943198084831238 x_pred[1,2]
   + 0.1093703135848045 x_pred[1,3] + 0.0777632668614388 x_pred[1,4]
   + 0.0711472406983376 x_pred[1,5] - 0.00765988044440746 x_pred[1,6]
   + 0.1827762126922607 x_pred[1,7] + 0.0817213505506516 x_pred[1,8]
   - 0.1520557403564453 x_pred[1,9] + 0.0253352597355843 x_pred[1,10]
   + 0.1291897892951965 x_pred[1,11] + 0.0631815046072006 x_pred[1,12]
   + 0.0217703599482775 x_pred[1,13] + 0.0500942207872868 x_pred[1,14]
   + 0.0267833136022091 x_pred[1,15] + 0.7237664461135864 x_pred[1,16]
   - 0.0333008095622063 x_pred[1,17] + 0.0079728914424777 x_pred[1,18]
   + 0.031026603654027 x_pred[1,19] + 0.1393804550170898 x_pred[1,20]
   - 0.0323627181351185 x_pred[1,21] - 0.0840320661664009 x_pred[1,22]
   - 0.024370402097702 x_pred[1,23] - 0.0196558684110641 x_pred[1,24]
   + 0.0271359998732805 x_pred[1,25] - 1.052833318710327 x_pred[1,26]
   - 0.0695115625858307 x_pred[1,27] - 0.1540224850177765 x_pred[1,28]
   - 0.00487957987934351 x_pred[1,29] - 0.0544482097029686 x_pred[1,30]
   + 0.1205876469612122 x_pred[1,31] + 0.0792954415082932 x_pred[1,32]
   + 0.0744854062795639 x_pred[1,33] - 0.1463767886161804 x_pred[1,34]
   - 0.0921119600534439 x_pred[1,35] + 0.1117229238152504 x_pred[1,36]
   + sequential0.linear_0.act[0,38] = -0.2882445752620697
 sequential0.linear_0.R274: 0.0608716644346714 x_pred[1,0]
   - 0.0384794324636459 x_pred[1,1] + 0.0267358310520649 x_pred[1,2]
   + 0.0236572679132223 x_pred[1,3] + 0.136579841375351 x_pred[1,4]
   - 0.1400761306285858 x_pred[1,5] + 0.0928142368793488 x_pred[1,6]
   - 0.00389423104934394 x_pred[1,7] + 0.1455926150083542 x_pred[1,8]
   + 0.0215049497783184 x_pred[1,9] + 0.0856298953294754 x_pred[1,10]
   + 0.1861954927444458 x_pred[1,11] + 0.0694616138935089 x_pred[1,12]
   + 0.0813600346446037 x_pred[1,13] - 0.1308792382478714 x_pred[1,14]
   + 0.1036564707756042 x_pred[1,15] - 0.0568374805152416 x_pred[1,16]
   - 0.0174674987792969 x_pred[1,17] - 0.1189010441303253 x_pred[1,18]
   - 0.0703376084566116 x_pred[1,19] + 0.0258991681039333 x_pred[1,20]
   + 0.1505918204784393 x_pred[1,21] + 0.0513056665658951 x_pred[1,22]
   + 0.0980261787772179 x_pred[1,23] + 0.147481381893158 x_pred[1,24]
   - 0.2527870535850525 x_pred[1,25] - 0.228381484746933 x_pred[1,26]
   + 0.1102375090122223 x_pred[1,27] - 0.1159734800457954 x_pred[1,28]
   - 0.0489777289330959 x_pred[1,29] - 0.0476794168353081 x_pred[1,30]
   + 0.1224090084433556 x_pred[1,31] + 0.0835920870304108 x_pred[1,32]
   - 0.0256670974195004 x_pred[1,33] + 0.0186182707548141 x_pred[1,34]
   + 0.1454159021377563 x_pred[1,35] + 0.150001734495163 x_pred[1,36]
   + sequential0.linear_0.act[0,39] = -0.0743798688054085
 sequential0.linear_0.R275: - 0.0930658429861069 x_pred[1,0]
   + 0.2161016464233398 x_pred[1,1] - 0.0869591534137726 x_pred[1,2]
   + 0.040809627622366 x_pred[1,3] + 0.1236038058996201 x_pred[1,4]
   + 0.0477626956999302 x_pred[1,5] + 0.1025287806987762 x_pred[1,6]
   - 0.1106345057487488 x_pred[1,7] + 0.0544675551354885 x_pred[1,8]
   - 0.0030486173927784 x_pred[1,9] + 0.0421276241540909 x_pred[1,10]
   - 0.1361613720655441 x_pred[1,11] + 0.1762083023786545 x_pred[1,12]
   - 0.143162414431572 x_pred[1,13] + 0.1092542484402657 x_pred[1,14]
   - 0.1270527690649033 x_pred[1,15] + 0.0674183517694473 x_pred[1,16]
   - 0.1330544054508209 x_pred[1,17] - 0.0628635585308075 x_pred[1,18]
   + 0.0886515751481056 x_pred[1,19] + 0.1269035935401917 x_pred[1,20]
   - 0.0466023571789265 x_pred[1,21] - 0.0301918517798185 x_pred[1,22]
   + 0.0361832715570927 x_pred[1,23] - 0.1934392750263214 x_pred[1,24]
   - 0.0474047623574734 x_pred[1,25] + 0.0991716310381889 x_pred[1,26]
   + 0.1818083375692368 x_pred[1,27] - 0.0661827698349953 x_pred[1,28]
   + 0.0124941086396575 x_pred[1,29] + 0.0104256914928555 x_pred[1,30]
   + 0.0978244096040726 x_pred[1,31] + 0.0165194645524025 x_pred[1,32]
   - 0.0462922230362892 x_pred[1,33] + 0.12691530585289 x_pred[1,34]
   + 0.1473719328641891 x_pred[1,35] - 0.0692681521177292 x_pred[1,36]
   + sequential0.linear_0.act[0,40] = -0.1160087957978249
 sequential0.linear_0.R276: 0.0304000377655029 x_pred[1,0]
   + 0.0150001514703035 x_pred[1,1] - 0.0112190479412675 x_pred[1,2]
   - 0.030100729316473 x_pred[1,3] + 0.2225101739168167 x_pred[1,4]
   - 0.1058981940150261 x_pred[1,5] + 0.0522418171167374 x_pred[1,6]
   - 0.1352575719356537 x_pred[1,7] - 0.0114761060103774 x_pred[1,8]
   + 0.0710299164056778 x_pred[1,9] - 0.0553521923720837 x_pred[1,10]
   + 0.0701142549514771 x_pred[1,11] + 0.0382245592772961 x_pred[1,12]
   - 0.0692614912986755 x_pred[1,13] - 0.024084847420454 x_pred[1,14]
   - 0.00721685076132417 x_pred[1,15] - 0.0187205970287323 x_pred[1,16]
   - 0.053462453186512 x_pred[1,17] - 0.0994983464479446 x_pred[1,18]
   - 0.1242924705147743 x_pred[1,19] - 0.0758453533053398 x_pred[1,20]
   - 0.0398094914853573 x_pred[1,21] - 0.0932527780532837 x_pred[1,22]
   - 0.1527726650238037 x_pred[1,23] - 0.0892790555953979 x_pred[1,24]
   - 0.1258325129747391 x_pred[1,25] + 0.1758115738630295 x_pred[1,26]
   + 0.1367632746696472 x_pred[1,27] - 0.0244129505008459 x_pred[1,28]
   - 0.0955474451184273 x_pred[1,29] - 0.1747101098299026 x_pred[1,30]
   + 0.1055753231048584 x_pred[1,31] + 0.0697162449359894 x_pred[1,32]
   - 0.0204202886670828 x_pred[1,33] + 0.0991200059652328 x_pred[1,34]
   + 0.1132829412817955 x_pred[1,35] - 0.0824030190706253 x_pred[1,36]
   + sequential0.linear_0.act[0,41] = -0.1361245065927505
 sequential0.linear_0.R277: 0.1691109091043472 x_pred[1,0]
   + 0.6677519679069519 x_pred[1,1] + 0.0871991813182831 x_pred[1,2]
   - 2.095548152923584 x_pred[1,3] - 3.364067792892456 x_pred[1,4]
   - 0.064466118812561 x_pred[1,5] - 0.0534917563199997 x_pred[1,6]
   + 0.00955689046531916 x_pred[1,7] - 0.0569760948419571 x_pred[1,8]
   + 0.0216734111309052 x_pred[1,9] + 0.0333032719790936 x_pred[1,10]
   + 0.0049268864095211 x_pred[1,11] - 0.0322612635791302 x_pred[1,12]
   + 0.0415047444403172 x_pred[1,13] + 0.0289067476987839 x_pred[1,14]
   - 0.0361242890357971 x_pred[1,15] + 0.2612397074699402 x_pred[1,16]
   + 0.0346263200044632 x_pred[1,17] - 0.0201673712581396 x_pred[1,18]
   + 0.0189938209950924 x_pred[1,19] - 0.0312898270785809 x_pred[1,20]
   - 0.0287455320358276 x_pred[1,21] + 0.0582702942192554 x_pred[1,22]
   + 0.0120033724233508 x_pred[1,23] + 0.0187186188995838 x_pred[1,24]
   - 0.0399451814591885 x_pred[1,25] - 0.4941821396350861 x_pred[1,26]
   + 0.017292408272624 x_pred[1,27] - 0.0053702425211668 x_pred[1,28]
   - 0.00282018585130572 x_pred[1,29] + 0.00610831705853343 x_pred[1,30]
   - 0.0367837175726891 x_pred[1,31] - 0.0199019052088261 x_pred[1,32]
   - 0.0217464696615934 x_pred[1,33] + 0.0176746863871813 x_pred[1,34]
   + 0.027034055441618 x_pred[1,35] - 0.0582203455269337 x_pred[1,36]
   + sequential0.linear_0.act[0,42] = -0.3923161029815674
 sequential0.linear_0.R278: 0.0315592177212238 x_pred[1,0]
   - 0.110038660466671 x_pred[1,1] + 0.0401365756988525 x_pred[1,2]
   + 0.05689961835742 x_pred[1,3] - 0.0133607974275947 x_pred[1,4]
   - 0.056726586073637 x_pred[1,5] - 0.0321192666888237 x_pred[1,6]
   + 0.1299186497926712 x_pred[1,7] + 0.0756320506334305 x_pred[1,8]
   - 0.1080984473228455 x_pred[1,9] - 0.0611746944487095 x_pred[1,10]
   + 0.0195292681455612 x_pred[1,11] + 0.1008654311299324 x_pred[1,12]
   - 0.040279395878315 x_pred[1,13] - 0.1628784090280533 x_pred[1,14]
   - 0.0849648043513298 x_pred[1,15] - 0.1793069839477539 x_pred[1,16]
   - 0.038649957627058 x_pred[1,17] + 0.1547974199056625 x_pred[1,18]
   + 0.0548565723001957 x_pred[1,19] - 0.0860808715224266 x_pred[1,20]
   - 0.1164919659495354 x_pred[1,21] + 0.1648942977190018 x_pred[1,22]
   + 0.1196580454707146 x_pred[1,23] + 0.0705170184373856 x_pred[1,24]
   + 0.0305148884654045 x_pred[1,25] - 0.0700322613120079 x_pred[1,26]
   + 0.1559731215238571 x_pred[1,27] + 0.0478263013064861 x_pred[1,28]
   + 0.0045996755361557 x_pred[1,29] - 0.0944642350077629 x_pred[1,30]
   + 0.0492282286286354 x_pred[1,31] + 0.106416217982769 x_pred[1,32]
   + 0.0682340562343597 x_pred[1,33] - 0.0808350667357445 x_pred[1,34]
   + 0.029744666069746 x_pred[1,35] - 0.0950046330690384 x_pred[1,36]
   + sequential0.linear_0.act[0,43] = -0.1684000790119171
 sequential0.linear_0.R279: 0.1085468903183937 x_pred[1,0]
   - 0.021404692903161 x_pred[1,1] + 0.00150425534229726 x_pred[1,2]
   - 0.00647196685895324 x_pred[1,3] + 0.1360790580511093 x_pred[1,4]
   + 0.0234553776681423 x_pred[1,5] - 0.0901255831122398 x_pred[1,6]
   - 0.1568743884563446 x_pred[1,7] - 0.0221659149974585 x_pred[1,8]
   + 0.0924414470791817 x_pred[1,9] + 0.00727510778233409 x_pred[1,10]
   + 0.1594105809926987 x_pred[1,11] - 0.0623644106090069 x_pred[1,12]
   - 0.0144504616037011 x_pred[1,13] + 0.00779866520315409 x_pred[1,14]
   - 0.0208681616932154 x_pred[1,15] - 0.1378688812255859 x_pred[1,16]
   + 0.106822669506073 x_pred[1,17] + 0.1198893636465073 x_pred[1,18]
   - 0.1132869124412537 x_pred[1,19] - 0.139952540397644 x_pred[1,20]
   - 0.0431605614721775 x_pred[1,21] - 0.0696553140878677 x_pred[1,22]
   - 0.04318543151021 x_pred[1,23] - 0.1043796166777611 x_pred[1,24]
   + 0.016842482611537 x_pred[1,25] - 0.1409380584955215 x_pred[1,26]
   - 0.0108334561809897 x_pred[1,27] - 0.1385904848575592 x_pred[1,28]
   + 0.0460850745439529 x_pred[1,29] - 0.0334207266569138 x_pred[1,30]
   - 0.1282206028699875 x_pred[1,31] - 0.0800994634628296 x_pred[1,32]
   + 0.1274254620075226 x_pred[1,33] + 0.0724775120615959 x_pred[1,34]
   + 0.1513999998569489 x_pred[1,35] - 0.134301632642746 x_pred[1,36]
   + sequential0.linear_0.act[0,44] = -0.1176443472504616
 sequential0.linear_0.R280: 0.0664983615279198 x_pred[1,0]
   + 0.00312200281769037 x_pred[1,1] + 0.2011486887931824 x_pred[1,2]
   - 0.9622607231140137 x_pred[1,3] - 0.3275594711303711 x_pred[1,4]
   - 0.0869553536176682 x_pred[1,5] + 0.00372242298908532 x_pred[1,6]
   + 0.0442794598639011 x_pred[1,7] - 0.0815161764621735 x_pred[1,8]
   - 0.0186744704842567 x_pred[1,9] - 0.0623263902962208 x_pred[1,10]
   - 0.0358308367431164 x_pred[1,11] + 0.17103011906147 x_pred[1,12]
   - 0.1388129740953445 x_pred[1,13] + 0.1204266920685768 x_pred[1,14]
   + 0.0145744187757373 x_pred[1,15] + 0.2116768062114716 x_pred[1,16]
   - 0.1587640047073364 x_pred[1,17] + 0.1990981251001358 x_pred[1,18]
   + 0.0353001914918423 x_pred[1,19] - 0.00854078587144613 x_pred[1,20]
   + 0.0435238368809223 x_pred[1,21] - 0.1190686002373695 x_pred[1,22]
   + 0.1633940935134888 x_pred[1,23] - 0.1634944230318069 x_pred[1,24]
   + 0.1805979013442993 x_pred[1,25] - 0.6366961002349854 x_pred[1,26]
   - 0.045324794948101 x_pred[1,27] - 0.1082407906651497 x_pred[1,28]
   - 0.0827840492129326 x_pred[1,29] + 0.0963424146175385 x_pred[1,30]
   - 0.1313662081956863 x_pred[1,31] - 0.11247568577528 x_pred[1,32]
   - 0.00366766867227852 x_pred[1,33] - 0.1515588760375977 x_pred[1,34]
   + 0.0908316969871521 x_pred[1,35] - 0.0305387377738953 x_pred[1,36]
   + sequential0.linear_0.act[0,45] = -0.2915718555450439
 sequential0.linear_0.R281: 0.2410741150379181 x_pred[1,0]
   - 0.1287823915481567 x_pred[1,1] + 0.4171448647975922 x_pred[1,2]
   - 1.155679225921631 x_pred[1,3] - 0.6473773717880249 x_pred[1,4]
   - 0.0176955685019493 x_pred[1,5] - 0.0223673768341541 x_pred[1,6]
   + 0.0850209146738052 x_pred[1,7] - 0.0489661805331707 x_pred[1,8]
   - 0.0344256274402142 x_pred[1,9] - 0.0809814035892487 x_pred[1,10]
   - 0.0588663220405579 x_pred[1,11] + 0.1482711583375931 x_pred[1,12]
   + 0.0461662784218788 x_pred[1,13] + 0.070453405380249 x_pred[1,14]
   + 0.0900531932711601 x_pred[1,15] + 0.1196639910340309 x_pred[1,16]
   - 0.108772799372673 x_pred[1,17] - 0.1409565210342407 x_pred[1,18]
   - 0.0295970141887665 x_pred[1,19] + 0.0807921141386032 x_pred[1,20]
   + 0.0599362254142761 x_pred[1,21] + 0.0720934867858887 x_pred[1,22]
   - 0.0390940345823765 x_pred[1,23] - 2.40146e-05 x_pred[1,24]
   - 0.0611317977309227 x_pred[1,25] - 0.0315165892243385 x_pred[1,26]
   - 0.1300375312566757 x_pred[1,27] + 0.0386086069047451 x_pred[1,28]
   - 0.0374096781015396 x_pred[1,29] + 0.00282060448080301 x_pred[1,30]
   + 0.0249830987304449 x_pred[1,31] + 0.1893841624259949 x_pred[1,32]
   + 0.0596505366265774 x_pred[1,33] - 0.0892371162772179 x_pred[1,34]
   - 0.0528502650558949 x_pred[1,35] - 0.0139454370364547 x_pred[1,36]
   + sequential0.linear_0.act[0,46] = 0.1826010942459106
 sequential0.linear_0.R282: 0.3641464114189148 x_pred[1,0]
   + 0.25555419921875 x_pred[1,1] - 0.0203453171998262 x_pred[1,2]
   + 0.18600133061409 x_pred[1,3] + 0.1536282598972321 x_pred[1,4]
   - 0.0128469709306955 x_pred[1,5] - 0.0691337734460831 x_pred[1,6]
   + 0.1789831072092056 x_pred[1,7] - 0.1755113899707794 x_pred[1,8]
   - 0.0816811323165894 x_pred[1,9] + 0.0789684653282166 x_pred[1,10]
   + 0.1561512649059296 x_pred[1,11] - 0.0257851667702198 x_pred[1,12]
   + 0.164742037653923 x_pred[1,13] - 0.0908908620476723 x_pred[1,14]
   - 0.0324716083705425 x_pred[1,15] + 0.0480022057890892 x_pred[1,16]
   - 0.0349548123776913 x_pred[1,17] + 0.0607179142534733 x_pred[1,18]
   - 0.1026036143302917 x_pred[1,19] + 0.0250910203903913 x_pred[1,20]
   - 0.0893168970942497 x_pred[1,21] - 0.1103359162807465 x_pred[1,22]
   + 0.0586623810231686 x_pred[1,23] + 0.1787443310022354 x_pred[1,24]
   - 0.0285685807466507 x_pred[1,25] - 0.122817762196064 x_pred[1,26]
   - 0.0886184275150299 x_pred[1,27] + 0.063460573554039 x_pred[1,28]
   - 0.1029351800680161 x_pred[1,29] + 0.0414705388247967 x_pred[1,30]
   - 0.00533131882548332 x_pred[1,31] - 0.066170908510685 x_pred[1,32]
   + 0.2011999487876892 x_pred[1,33] - 0.1415413320064545 x_pred[1,34]
   + 0.0319091975688934 x_pred[1,35] + 0.171506330370903 x_pred[1,36]
   + sequential0.linear_0.act[0,47] = -0.0743717104196548
 sequential0.linear_0.R283: 0.2418968379497528 x_pred[1,0]
   + 0.836640477180481 x_pred[1,1] + 0.1972574591636658 x_pred[1,2]
   - 1.914907574653625 x_pred[1,3] - 2.595380306243896 x_pred[1,4]
   + 0.0256754439324141 x_pred[1,5] + 0.0899330303072929 x_pred[1,6]
   + 0.00326372939161956 x_pred[1,7] + 0.012512288056314 x_pred[1,8]
   - 0.0716351866722107 x_pred[1,9] - 0.0566113740205765 x_pred[1,10]
   + 0.056132797151804 x_pred[1,11] - 0.038273811340332 x_pred[1,12]
   - 0.0131892208009958 x_pred[1,13] - 0.0650920048356056 x_pred[1,14]
   + 0.0186793319880962 x_pred[1,15] + 0.2487428188323975 x_pred[1,16]
   + 0.0335128642618656 x_pred[1,17] - 0.0251154787838459 x_pred[1,18]
   + 0.065338172018528 x_pred[1,19] + 0.0738590881228447 x_pred[1,20]
   + 0.00152983563020825 x_pred[1,21] + 0.0369640812277794 x_pred[1,22]
   - 0.0341535471379757 x_pred[1,23] + 0.0293661188334227 x_pred[1,24]
   + 0.0320418365299702 x_pred[1,25] - 0.410602867603302 x_pred[1,26]
   + 0.0199084747582674 x_pred[1,27] + 0.0100705502554774 x_pred[1,28]
   - 0.0350997522473335 x_pred[1,29] - 0.0396846756339073 x_pred[1,30]
   - 0.0272477399557829 x_pred[1,31] - 0.0655267909169197 x_pred[1,32]
   + 0.0461500436067581 x_pred[1,33] + 0.1497600972652435 x_pred[1,34]
   + 0.0977408364415169 x_pred[1,35] + 0.0599602945148945 x_pred[1,36]
   + sequential0.linear_0.act[0,48] = -0.2028674334287643
 sequential0.linear_0.R284: 0.0365282855927944 x_pred[1,0]
   - 0.00988063123077154 x_pred[1,1] + 0.0624554194509983 x_pred[1,2]
   + 0.2269227653741837 x_pred[1,3] + 0.1076134294271469 x_pred[1,4]
   - 0.0891074240207672 x_pred[1,5] - 0.1364002674818039 x_pred[1,6]
   - 0.000351641 x_pred[1,7] - 0.1668217927217484 x_pred[1,8]
   + 0.00786798074841499 x_pred[1,9] - 0.0106173679232597 x_pred[1,10]
   + 0.3426125645637512 x_pred[1,11] + 0.0263950191438198 x_pred[1,12]
   + 0.0627123713493347 x_pred[1,13] - 0.0744210630655289 x_pred[1,14]
   + 0.1674441397190094 x_pred[1,15] - 0.1168689802289009 x_pred[1,16]
   + 0.0636360794305801 x_pred[1,17] + 0.1056715622544289 x_pred[1,18]
   - 0.0443628989160061 x_pred[1,19] - 0.2604294419288635 x_pred[1,20]
   + 0.0915068238973618 x_pred[1,21] + 0.1438529938459396 x_pred[1,22]
   - 0.00516429776325822 x_pred[1,23] + 0.1213877722620964 x_pred[1,24]
   - 0.0953228622674942 x_pred[1,25] - 0.0820726603269577 x_pred[1,26]
   + 0.0675188228487968 x_pred[1,27] + 0.1137923821806908 x_pred[1,28]
   - 0.0514504872262478 x_pred[1,29] + 0.1342424005270004 x_pred[1,30]
   - 0.041416946798563 x_pred[1,31] - 0.0489807985723019 x_pred[1,32]
   + 0.0118435500189662 x_pred[1,33] + 0.0664147138595581 x_pred[1,34]
   + 0.1262311637401581 x_pred[1,35] - 0.0578894577920437 x_pred[1,36]
   + sequential0.linear_0.act[0,49] = -0.0519504509866238
 sequential0.linear_0.R285: 0.3249245285987854 x_pred[1,0]
   + 0.2115324735641479 x_pred[1,1] - 0.0717611089348793 x_pred[1,2]
   + 0.1959219574928284 x_pred[1,3] + 0.1752142012119293 x_pred[1,4]
   - 5.4295134032145143e-04 x_pred[1,5] - 0.0973601639270782 x_pred[1,6]
   + 0.0821973755955696 x_pred[1,7] + 0.1551048755645752 x_pred[1,8]
   - 0.2446861863136292 x_pred[1,9] + 0.129416435956955 x_pred[1,10]
   + 0.0840799137949944 x_pred[1,11] + 0.1602006405591965 x_pred[1,12]
   + 0.1847076267004013 x_pred[1,13] + 0.0515206754207611 x_pred[1,14]
   - 0.0264382883906364 x_pred[1,15] - 0.1122166737914085 x_pred[1,16]
   + 0.1829696893692017 x_pred[1,17] + 0.0681187659502029 x_pred[1,18]
   + 0.0977997705340385 x_pred[1,19] - 0.0608022660017014 x_pred[1,20]
   + 0.1322818547487259 x_pred[1,21] + 0.00920147262513638 x_pred[1,22]
   + 0.0669056847691536 x_pred[1,23] - 0.0556972622871399 x_pred[1,24]
   - 0.1193404272198677 x_pred[1,25] - 0.0781211107969284 x_pred[1,26]
   - 0.1278924494981766 x_pred[1,27] + 0.0253752805292606 x_pred[1,28]
   + 0.0135734481737018 x_pred[1,29] + 0.0275195948779583 x_pred[1,30]
   + 0.178429052233696 x_pred[1,31] - 0.1249337494373322 x_pred[1,32]
   + 0.2668400704860687 x_pred[1,33] - 0.1736686676740646 x_pred[1,34]
   - 0.0177738051861525 x_pred[1,35] + 0.1188519820570946 x_pred[1,36]
   + sequential0.linear_0.act[0,50] = -0.1094845607876778
 sequential0.linear_0.R286: 0.1249496340751648 x_pred[1,0]
   + 0.1892195045948029 x_pred[1,1] + 0.1625979691743851 x_pred[1,2]
   + 0.0780084654688835 x_pred[1,3] + 0.2102551758289337 x_pred[1,4]
   - 0.1254645437002182 x_pred[1,5] + 0.1442968547344208 x_pred[1,6]
   + 0.00461971340700984 x_pred[1,7] - 0.0819390416145325 x_pred[1,8]
   - 0.0227243509143591 x_pred[1,9] + 0.0759601667523384 x_pred[1,10]
   + 0.0388815216720104 x_pred[1,11] + 0.0491622239351273 x_pred[1,12]
   - 0.1109085381031036 x_pred[1,13] + 0.2784811854362488 x_pred[1,14]
   - 0.1202023550868034 x_pred[1,15] - 0.0402971021831036 x_pred[1,16]
   + 0.0428199507296085 x_pred[1,17] + 0.3069867491722107 x_pred[1,18]
   + 0.1450405269861221 x_pred[1,19] - 0.0279568787664175 x_pred[1,20]
   - 0.183177649974823 x_pred[1,21] - 0.0412348955869675 x_pred[1,22]
   + 0.0416619405150414 x_pred[1,23] + 0.0129591654986143 x_pred[1,24]
   - 0.1586481183767319 x_pred[1,25] + 0.0832233056426048 x_pred[1,26]
   - 0.0274106319993734 x_pred[1,27] - 0.0729791596531868 x_pred[1,28]
   + 0.0711088925600052 x_pred[1,29] - 0.2810367047786713 x_pred[1,30]
   - 0.1108860969543457 x_pred[1,31] + 0.0874699279665947 x_pred[1,32]
   - 0.0789573565125465 x_pred[1,33] + 0.0177065823227167 x_pred[1,34]
   + 0.0683456659317017 x_pred[1,35] - 0.0548012629151344 x_pred[1,36]
   + sequential0.linear_0.act[0,51] = -0.1684399098157883
 sequential0.linear_0.R287: - 0.0373936221003532 x_pred[1,0]
   - 0.0770953819155693 x_pred[1,1] + 0.0616945661604404 x_pred[1,2]
   + 0.1673663854598999 x_pred[1,3] - 0.0176413431763649 x_pred[1,4]
   - 0.0459726117551327 x_pred[1,5] - 0.103433184325695 x_pred[1,6]
   + 0.1499413549900055 x_pred[1,7] - 0.1398119628429413 x_pred[1,8]
   - 0.1504019647836685 x_pred[1,9] + 0.203460618853569 x_pred[1,10]
   + 0.1772531270980835 x_pred[1,11] - 0.0312682688236237 x_pred[1,12]
   + 0.0220997799187899 x_pred[1,13] - 0.1406588107347488 x_pred[1,14]
   + 0.0528902672231197 x_pred[1,15] + 0.0867112427949905 x_pred[1,16]
   - 0.1196692064404488 x_pred[1,17] + 0.00874993856996298 x_pred[1,18]
   - 0.0613063052296638 x_pred[1,19] + 0.0103683136403561 x_pred[1,20]
   - 0.1372069865465164 x_pred[1,21] - 0.00306318 x_pred[1,22]
   + 0.124758169054985 x_pred[1,23] + 0.0100358100607991 x_pred[1,24]
   + 0.0265148095786572 x_pred[1,25] + 0.0288380105048418 x_pred[1,26]
   - 0.0616494044661522 x_pred[1,27] + 0.0640737786889076 x_pred[1,28]
   - 0.0458339937031269 x_pred[1,29] - 0.1520851254463196 x_pred[1,30]
   + 0.2190723270177841 x_pred[1,31] - 0.0424686633050442 x_pred[1,32]
   + 0.0441215448081493 x_pred[1,33] - 0.0838999152183533 x_pred[1,34]
   - 0.0760013982653618 x_pred[1,35] + 0.00827017799019814 x_pred[1,36]
   + sequential0.linear_0.act[0,52] = -0.1387560069561005
 sequential0.linear_0.R288: - 0.0148626426234841 x_pred[1,0]
   - 0.133526548743248 x_pred[1,1] + 0.1943841129541397 x_pred[1,2]
   + 0.645014762878418 x_pred[1,3] + 0.4666200280189514 x_pred[1,4]
   + 0.0594348162412643 x_pred[1,5] - 0.0363425463438034 x_pred[1,6]
   + 0.0850406438112259 x_pred[1,7] - 0.1415743976831436 x_pred[1,8]
   + 0.0234483741223812 x_pred[1,9] - 0.1478001028299332 x_pred[1,10]
   - 0.1520707011222839 x_pred[1,11] + 0.1099483370780945 x_pred[1,12]
   - 0.1179061979055405 x_pred[1,13] - 0.0524004213511944 x_pred[1,14]
   - 0.1555911898612976 x_pred[1,15] + 0.1171388849616051 x_pred[1,16]
   + 0.0246415212750435 x_pred[1,17] - 0.0755574032664299 x_pred[1,18]
   + 2.8479e-05 x_pred[1,19] - 0.1135758683085442 x_pred[1,20]
   + 0.1561938524246216 x_pred[1,21] + 0.0707137286663055 x_pred[1,22]
   - 0.1204138696193695 x_pred[1,23] + 0.0745954588055611 x_pred[1,24]
   - 0.0767210572957993 x_pred[1,25] - 0.175000861287117 x_pred[1,26]
   - 0.1734338998794556 x_pred[1,27] + 0.1237630769610405 x_pred[1,28]
   + 0.0905445367097855 x_pred[1,29] - 0.0873358771204948 x_pred[1,30]
   + 0.0164890289306641 x_pred[1,31] - 0.00995064061135054 x_pred[1,32]
   - 0.0680621787905693 x_pred[1,33] - 0.1646675020456314 x_pred[1,34]
   + 0.0313814729452133 x_pred[1,35] + 0.0902864709496498 x_pred[1,36]
   + sequential0.linear_0.act[0,53] = -0.0136897098273039
 sequential0.linear_0.R289: - 0.0177403 x_pred[1,0]
   + 0.0827176794409752 x_pred[1,1] + 0.0677263736724854 x_pred[1,2]
   + 0.2498333901166916 x_pred[1,3] + 0.0409625917673111 x_pred[1,4]
   + 0.00620202254503965 x_pred[1,5] - 0.2049447596073151 x_pred[1,6]
   - 0.00510884309187531 x_pred[1,7] - 0.1290425658226013 x_pred[1,8]
   - 0.1091552153229713 x_pred[1,9] - 0.0255782902240753 x_pred[1,10]
   - 0.0454522334039211 x_pred[1,11] + 0.00635072076693177 x_pred[1,12]
   - 0.1578138023614883 x_pred[1,13] - 0.2480100095272064 x_pred[1,14]
   - 0.0276145357638597 x_pred[1,15] + 0.2591943144798279 x_pred[1,16]
   - 0.0447022244334221 x_pred[1,17] + 0.2444269508123398 x_pred[1,18]
   + 0.0479661673307419 x_pred[1,19] - 0.1334760040044785 x_pred[1,20]
   - 0.1708101779222488 x_pred[1,21] - 0.2180391252040863 x_pred[1,22]
   + 0.1756546795368195 x_pred[1,23] + 0.2765266299247742 x_pred[1,24]
   - 0.00709544867277145 x_pred[1,25] - 0.2587965428829193 x_pred[1,26]
   - 0.0263959094882011 x_pred[1,27] + 0.00151061196811497 x_pred[1,28]
   - 0.023356331512332 x_pred[1,29] + 0.1544062942266464 x_pred[1,30]
   + 0.1114195138216019 x_pred[1,31] + 0.1758565604686737 x_pred[1,32]
   + 0.1624041944742203 x_pred[1,33] - 0.2164114713668823 x_pred[1,34]
   - 0.00211005657911301 x_pred[1,35] - 0.0374944806098938 x_pred[1,36]
   + sequential0.linear_0.act[0,54] = -0.2583884298801422
 sequential0.linear_0.R290: - 0.0193785075098276 x_pred[1,0]
   + 0.0128117306157947 x_pred[1,1] - 0.00345971924252808 x_pred[1,2]
   - 0.0911605879664421 x_pred[1,3] - 0.0996640995144844 x_pred[1,4]
   - 0.0218586605042219 x_pred[1,5] - 0.1412319540977478 x_pred[1,6]
   - 0.1664832383394241 x_pred[1,7] - 0.1128341779112816 x_pred[1,8]
   + 0.0497066043317318 x_pred[1,9] + 0.1548915356397629 x_pred[1,10]
   + 0.355851024389267 x_pred[1,11] + 0.018160630017519 x_pred[1,12]
   + 0.2478578686714172 x_pred[1,13] + 0.0326039493083954 x_pred[1,14]
   + 0.1865371465682983 x_pred[1,15] + 0.0223331078886986 x_pred[1,16]
   - 0.1459784954786301 x_pred[1,17] - 0.152970090508461 x_pred[1,18]
   - 0.0237014554440975 x_pred[1,19] - 0.2897347211837769 x_pred[1,20]
   + 0.1117778196930885 x_pred[1,21] - 0.1661250293254852 x_pred[1,22]
   - 0.1653907597064972 x_pred[1,23] - 0.0628355368971825 x_pred[1,24]
   - 0.2582695782184601 x_pred[1,25] - 0.0367584265768528 x_pred[1,26]
   - 0.1005973443388939 x_pred[1,27] + 0.1649465411901474 x_pred[1,28]
   - 0.0315842889249325 x_pred[1,29] + 0.2094858437776566 x_pred[1,30]
   + 0.1257321238517761 x_pred[1,31] - 0.1116670519113541 x_pred[1,32]
   + 0.1308142393827438 x_pred[1,33] - 0.0732529163360596 x_pred[1,34]
   + 0.2071245163679123 x_pred[1,35] + 0.00877941958606243 x_pred[1,36]
   + sequential0.linear_0.act[0,55] = -0.2020951956510544
 sequential0.linear_0.R291: - 0.0232791230082512 x_pred[1,0]
   + 0.1967269778251648 x_pred[1,1] + 0.1435811221599579 x_pred[1,2]
   + 0.2160506546497345 x_pred[1,3] + 0.1480230987071991 x_pred[1,4]
   - 0.0267885494977236 x_pred[1,5] - 0.1233250945806503 x_pred[1,6]
   - 0.0687601715326309 x_pred[1,7] - 0.1707198917865753 x_pred[1,8]
   + 0.0206953659653664 x_pred[1,9] + 0.0670792981982231 x_pred[1,10]
   - 0.0222262907773256 x_pred[1,11] + 0.0334465354681015 x_pred[1,12]
   + 0.0209680497646332 x_pred[1,13] + 0.1240343078970909 x_pred[1,14]
   + 0.0523393973708153 x_pred[1,15] - 0.0557449832558632 x_pred[1,16]
   - 0.1301731914281845 x_pred[1,17] - 0.090301938354969 x_pred[1,18]
   - 0.0246956869959831 x_pred[1,19] + 0.1485642492771149 x_pred[1,20]
   + 0.1802912652492523 x_pred[1,21] + 0.1446478068828583 x_pred[1,22]
   + 0.0357023626565933 x_pred[1,23] + 0.1443214565515518 x_pred[1,24]
   + 0.0336983948945999 x_pred[1,25] - 0.1400608271360397 x_pred[1,26]
   + 0.0576839186251163 x_pred[1,27] - 0.0713999643921852 x_pred[1,28]
   - 0.0506793260574341 x_pred[1,29] - 0.0463795065879822 x_pred[1,30]
   + 0.1517019122838974 x_pred[1,31] - 0.1055902019143105 x_pred[1,32]
   + 0.1509507596492767 x_pred[1,33] + 0.1766173839569092 x_pred[1,34]
   + 0.1348701566457748 x_pred[1,35] + 0.00286665069870651 x_pred[1,36]
   + sequential0.linear_0.act[0,56] = -0.0784230753779411
 sequential0.linear_0.R292: 0.0868359208106995 x_pred[1,0]
   + 0.0346230454742908 x_pred[1,1] + 0.0802877172827721 x_pred[1,2]
   + 0.5332523584365845 x_pred[1,3] + 0.2609394490718842 x_pred[1,4]
   + 0.1415112763643265 x_pred[1,5] + 0.0713801458477974 x_pred[1,6]
   + 0.1036361530423164 x_pred[1,7] + 0.0939700081944466 x_pred[1,8]
   + 0.065599225461483 x_pred[1,9] - 0.0802026316523552 x_pred[1,10]
   - 0.0711480751633644 x_pred[1,11] - 0.0931560322642326 x_pred[1,12]
   - 0.0170784145593643 x_pred[1,13] - 0.1350294798612595 x_pred[1,14]
   - 0.0199136715382338 x_pred[1,15] - 0.0346395373344421 x_pred[1,16]
   - 0.0656100660562515 x_pred[1,17] + 0.1155213788151741 x_pred[1,18]
   - 0.0367018803954124 x_pred[1,19] + 0.1068366691470146 x_pred[1,20]
   - 0.0373288467526436 x_pred[1,21] - 0.0782240107655525 x_pred[1,22]
   + 0.0333810970187187 x_pred[1,23] + 0.1160789877176285 x_pred[1,24]
   - 0.1135601922869682 x_pred[1,25] + 0.2437139004468918 x_pred[1,26]
   - 0.039808314293623 x_pred[1,27] - 0.1436358839273453 x_pred[1,28]
   + 0.0794162377715111 x_pred[1,29] - 0.0572139024734497 x_pred[1,30]
   + 0.0717818513512611 x_pred[1,31] + 0.0925462767481804 x_pred[1,32]
   + 0.0269912257790565 x_pred[1,33] + 0.1238106265664101 x_pred[1,34]
   + 0.0641979798674583 x_pred[1,35] + 0.0413625948131084 x_pred[1,36]
   + sequential0.linear_0.act[0,57] = 0.00308215362019837
 sequential0.linear_0.R293: 0.0144933462142944 x_pred[1,0]
   - 6.93177e-05 x_pred[1,1] + 0.1425871104001999 x_pred[1,2]
   - 0.1403641551733017 x_pred[1,3] + 0.1174086257815361 x_pred[1,4]
   - 0.2298069298267365 x_pred[1,5] + 0.2280572354793549 x_pred[1,6]
   + 0.1485430896282196 x_pred[1,7] - 0.00225946540012956 x_pred[1,8]
   - 0.2256560176610947 x_pred[1,9] + 0.2591235637664795 x_pred[1,10]
   + 0.1863366663455963 x_pred[1,11] + 0.1020380929112434 x_pred[1,12]
   - 0.1056856364011765 x_pred[1,13] - 0.2054495364427567 x_pred[1,14]
   + 0.0108123533427715 x_pred[1,15] + 0.0935731530189514 x_pred[1,16]
   + 0.1280204802751541 x_pred[1,17] + 0.2613821923732758 x_pred[1,18]
   + 0.1548174917697906 x_pred[1,19] - 0.2517009377479553 x_pred[1,20]
   - 0.2435965090990067 x_pred[1,21] + 0.0324883833527565 x_pred[1,22]
   - 0.1940292418003082 x_pred[1,23] + 0.2584544122219086 x_pred[1,24]
   - 0.0194054413586855 x_pred[1,25] + 0.0356918908655643 x_pred[1,26]
   - 0.0542631857097149 x_pred[1,27] - 0.1644613146781921 x_pred[1,28]
   - 0.0603304766118526 x_pred[1,29] - 0.0470119640231133 x_pred[1,30]
   + 0.0476862974464893 x_pred[1,31] + 0.0962678417563438 x_pred[1,32]
   + 0.0718766748905182 x_pred[1,33] - 0.1632881462574005 x_pred[1,34]
   - 0.0376045145094395 x_pred[1,35] + 0.1968289613723755 x_pred[1,36]
   + sequential0.linear_0.act[0,58] = -0.2110403627157211
 sequential0.linear_0.R294: 0.0536013059318066 x_pred[1,0]
   + 0.00327010732144117 x_pred[1,1] + 0.0776695907115936 x_pred[1,2]
   + 0.271221250295639 x_pred[1,3] + 0.1849677115678787 x_pred[1,4]
   + 0.1121944114565849 x_pred[1,5] + 0.00984858255833387 x_pred[1,6]
   + 0.1740981340408325 x_pred[1,7] + 0.0138972764834762 x_pred[1,8]
   - 0.0900925621390343 x_pred[1,9] + 0.1216228380799294 x_pred[1,10]
   - 0.0479901172220707 x_pred[1,11] + 0.1628670990467072 x_pred[1,12]
   + 0.1007852181792259 x_pred[1,13] - 0.2233405709266663 x_pred[1,14]
   + 0.259034663438797 x_pred[1,15] - 0.080882154405117 x_pred[1,16]
   - 0.0717737823724747 x_pred[1,17] - 0.0764360576868057 x_pred[1,18]
   + 0.0628034025430679 x_pred[1,19] + 0.1395761519670486 x_pred[1,20]
   + 0.0232102926820517 x_pred[1,21] + 0.0996565818786621 x_pred[1,22]
   - 0.037479393184185 x_pred[1,23] + 0.0611650310456753 x_pred[1,24]
   - 0.1224047392606735 x_pred[1,25] - 0.1187426671385765 x_pred[1,26]
   + 0.0648457184433937 x_pred[1,27] - 0.0560541972517967 x_pred[1,28]
   + 0.143572136759758 x_pred[1,29] + 0.022345170378685 x_pred[1,30]
   - 0.1214202120900154 x_pred[1,31] - 0.0609938837587833 x_pred[1,32]
   - 0.0534193925559521 x_pred[1,33] + 0.0650272965431213 x_pred[1,34]
   + 0.1549896597862244 x_pred[1,35] - 0.0236903987824917 x_pred[1,36]
   + sequential0.linear_0.act[0,59] = -0.0284350477159023
 sequential0.linear_0.R295: 0.539614200592041 x_pred[1,0]
   - 0.1002499461174011 x_pred[1,1] + 0.3769135475158691 x_pred[1,2]
   + 1.321813702583313 x_pred[1,3] + 0.4068885445594788 x_pred[1,4]
   + 0.2560242116451263 x_pred[1,5] - 0.1054341346025467 x_pred[1,6]
   - 0.0643720552325249 x_pred[1,7] + 0.0216310154646635 x_pred[1,8]
   - 0.0641244128346443 x_pred[1,9] - 0.1001629531383514 x_pred[1,10]
   + 0.0961754396557808 x_pred[1,11] - 0.2447250634431839 x_pred[1,12]
   - 0.0552182756364346 x_pred[1,13] - 0.0425810031592846 x_pred[1,14]
   - 0.0224509313702583 x_pred[1,15] - 0.4289927184581757 x_pred[1,16]
   + 0.030984053388238 x_pred[1,17] - 0.0189176984131336 x_pred[1,18]
   + 0.0941040068864822 x_pred[1,19] - 0.0799482762813568 x_pred[1,20]
   - 0.0118680037558079 x_pred[1,21] - 0.0659857839345932 x_pred[1,22]
   - 0.00138818181585521 x_pred[1,23] - 0.1677782237529755 x_pred[1,24]
   + 0.0852585062384605 x_pred[1,25] + 0.5295386910438538 x_pred[1,26]
   + 0.1584657579660416 x_pred[1,27] + 0.1997291892766953 x_pred[1,28]
   + 0.1570311337709427 x_pred[1,29] + 0.0214680302888155 x_pred[1,30]
   - 0.1667614132165909 x_pred[1,31] - 0.2656138241291046 x_pred[1,32]
   - 0.2138866484165192 x_pred[1,33] + 0.1107231378555298 x_pred[1,34]
   + 0.2439880222082138 x_pred[1,35] - 0.0236181393265724 x_pred[1,36]
   + sequential0.linear_0.act[0,60] = 0.1734496355056763
 sequential0.linear_0.R296: 0.1230763122439384 x_pred[1,0]
   - 0.0206661447882652 x_pred[1,1] + 0.1752074211835861 x_pred[1,2]
   + 0.7361544966697693 x_pred[1,3] + 0.4341446757316589 x_pred[1,4]
   + 0.0268803294748068 x_pred[1,5] + 0.1252250522375107 x_pred[1,6]
   - 0.0850355476140976 x_pred[1,7] + 0.0351075120270252 x_pred[1,8]
   + 0.1582173705101013 x_pred[1,9] + 0.1230426728725433 x_pred[1,10]
   + 0.2096254825592041 x_pred[1,11] - 0.1071173697710037 x_pred[1,12]
   - 0.0908840298652649 x_pred[1,13] + 0.2282750308513641 x_pred[1,14]
   - 0.0076632178388536 x_pred[1,15] + 0.0289766285568476 x_pred[1,16]
   + 0.0438211001455784 x_pred[1,17] + 0.00674659665673971 x_pred[1,18]
   + 0.2098536640405655 x_pred[1,19] + 0.1304004937410355 x_pred[1,20]
   - 0.0394270345568657 x_pred[1,21] - 0.0112380031496286 x_pred[1,22]
   + 0.0468903966248035 x_pred[1,23] + 0.1377275884151459 x_pred[1,24]
   - 0.2406056374311447 x_pred[1,25] + 0.1655854880809784 x_pred[1,26]
   + 0.0235218666493893 x_pred[1,27] + 0.2048690170049667 x_pred[1,28]
   + 0.0899154916405678 x_pred[1,29] + 0.0627362802624702 x_pred[1,30]
   - 0.0690084546804428 x_pred[1,31] - 0.1299402862787247 x_pred[1,32]
   + 0.0724372416734695 x_pred[1,33] - 0.0262992698699236 x_pred[1,34]
   + 0.00918847694993019 x_pred[1,35] + 0.0685904324054718 x_pred[1,36]
   + sequential0.linear_0.act[0,61] = -0.0147304022684693
 sequential0.linear_0.R297: - 0.1712462157011032 x_pred[1,0]
   - 0.1993670910596848 x_pred[1,1] + 0.5573722720146179 x_pred[1,2]
   - 1.30604887008667 x_pred[1,3] - 0.7994650602340698 x_pred[1,4]
   - 0.1689558774232864 x_pred[1,5] - 0.0361603982746601 x_pred[1,6]
   - 0.0172886550426483 x_pred[1,7] + 0.0774781182408333 x_pred[1,8]
   - 0.00997445452958345 x_pred[1,9] - 0.0543993711471558 x_pred[1,10]
   + 0.0403684377670288 x_pred[1,11] - 0.1073441579937935 x_pred[1,12]
   + 0.0543122701346874 x_pred[1,13] + 0.0368776582181454 x_pred[1,14]
   + 0.1457243710756302 x_pred[1,15] + 0.0698451548814774 x_pred[1,16]
   + 0.0230012610554695 x_pred[1,17] + 0.0417440384626389 x_pred[1,18]
   - 0.0816357359290123 x_pred[1,19] + 0.0346934348344803 x_pred[1,20]
   + 0.0644092559814453 x_pred[1,21] - 0.0591051764786243 x_pred[1,22]
   - 0.0451799109578133 x_pred[1,23] - 0.0225134659558535 x_pred[1,24]
   - 0.0960721373558044 x_pred[1,25] - 0.2531984746456146 x_pred[1,26]
   + 0.0538038983941078 x_pred[1,27] - 0.1231001019477844 x_pred[1,28]
   + 0.0419857762753963 x_pred[1,29] + 0.0502992048859596 x_pred[1,30]
   - 0.063607819378376 x_pred[1,31] - 0.103572241961956 x_pred[1,32]
   - 0.0324105583131313 x_pred[1,33] + 0.0238512959331274 x_pred[1,34]
   - 0.1318791210651398 x_pred[1,35] + 0.0165221877396107 x_pred[1,36]
   + sequential0.linear_0.act[0,62] = 0.2600347399711609
 sequential0.linear_0.R298: - 0.0269784517586231 x_pred[1,0]
   + 0.1912827044725418 x_pred[1,1] + 0.2114187628030777 x_pred[1,2]
   + 0.1802354753017426 x_pred[1,3] + 0.1386789381504059 x_pred[1,4]
   - 0.0472176969051361 x_pred[1,5] + 0.0664189085364342 x_pred[1,6]
   - 0.052509393543005 x_pred[1,7] + 0.0741812139749527 x_pred[1,8]
   - 0.0678811892867088 x_pred[1,9] + 0.0652303099632263 x_pred[1,10]
   + 0.0501262657344341 x_pred[1,11] - 0.0205278322100639 x_pred[1,12]
   + 0.1203823611140251 x_pred[1,13] - 0.0902492851018906 x_pred[1,14]
   + 0.1479319632053375 x_pred[1,15] - 0.1143756210803986 x_pred[1,16]
   + 0.0583477318286896 x_pred[1,17] - 0.0231794193387032 x_pred[1,18]
   - 0.0274973884224892 x_pred[1,19] - 0.1524540185928345 x_pred[1,20]
   + 0.1424676775932312 x_pred[1,21] - 0.1063641607761383 x_pred[1,22]
   - 0.0384527370333672 x_pred[1,23] - 0.00178741535637528 x_pred[1,24]
   - 0.2442626655101776 x_pred[1,25] - 0.3037002980709076 x_pred[1,26]
   - 0.0486788041889668 x_pred[1,27] - 0.1108883768320084 x_pred[1,28]
   - 0.1186036467552185 x_pred[1,29] + 0.2340254932641983 x_pred[1,30]
   + 0.1648226082324982 x_pred[1,31] - 0.0820487961173058 x_pred[1,32]
   + 0.2131196707487106 x_pred[1,33] - 0.0171059798449278 x_pred[1,34]
   + 0.1264733523130417 x_pred[1,35] + 0.0353265255689621 x_pred[1,36]
   + sequential0.linear_0.act[0,63] = -0.0926164537668228
 sequential0.linear_0.R299: - 0.1142892092466354 x_pred[1,0]
   + 0.0492409989237785 x_pred[1,1] + 0.361806720495224 x_pred[1,2]
   + 1.276152729988098 x_pred[1,3] + 0.3998720049858093 x_pred[1,4]
   - 0.0786823704838753 x_pred[1,5] + 0.1320185363292694 x_pred[1,6]
   - 0.0191541854292154 x_pred[1,7] - 0.1496934592723846 x_pred[1,8]
   - 0.1481748670339584 x_pred[1,9] + 0.0921060964465141 x_pred[1,10]
   + 0.0102479113265872 x_pred[1,11] + 0.0800032243132591 x_pred[1,12]
   + 0.052349615842104 x_pred[1,13] - 0.136256992816925 x_pred[1,14]
   - 0.1614024937152863 x_pred[1,15] + 0.1500917375087738 x_pred[1,16]
   + 0.0065694535151124 x_pred[1,17] - 0.00785733200609684 x_pred[1,18]
   + 0.0490185581147671 x_pred[1,19] + 0.1058636903762817 x_pred[1,20]
   + 0.00381136033684015 x_pred[1,21] + 0.0554472059011459 x_pred[1,22]
   - 0.00467288494110107 x_pred[1,23] + 0.0419391207396984 x_pred[1,24]
   - 0.0904179438948631 x_pred[1,25] - 0.3147692978382111 x_pred[1,26]
   + 0.0293831340968609 x_pred[1,27] - 0.0947588905692101 x_pred[1,28]
   + 0.0509725920855999 x_pred[1,29] + 0.0784178078174591 x_pred[1,30]
   - 0.1247177794575691 x_pred[1,31] + 0.1199018880724907 x_pred[1,32]
   - 0.0999458804726601 x_pred[1,33] - 0.1964477002620697 x_pred[1,34]
   + 0.0539968647062778 x_pred[1,35] + 0.0904675498604774 x_pred[1,36]
   + sequential0.linear_0.act[0,64] = 0.3617266416549683
 sequential0.linear_0.R300: 0.1190918534994125 x_pred[1,0]
   + 0.7981485724449158 x_pred[1,1] + 0.1500839293003082 x_pred[1,2]
   - 2.911911249160767 x_pred[1,3] - 4.22121524810791 x_pred[1,4]
   + 0.0174272544682026 x_pred[1,5] - 3.80733e-05 x_pred[1,6]
   - 0.0995448008179665 x_pred[1,7] - 0.0229635536670685 x_pred[1,8]
   + 0.1089990958571434 x_pred[1,9] - 0.0328483134508133 x_pred[1,10]
   - 0.0966262966394424 x_pred[1,11] - 0.0034581646323204 x_pred[1,12]
   + 0.00752608571201563 x_pred[1,13] + 0.0393380373716354 x_pred[1,14]
   + 0.00200329045765102 x_pred[1,15] + 0.2651694715023041 x_pred[1,16]
   - 0.0179486330598593 x_pred[1,17] + 0.0351967327296734 x_pred[1,18]
   - 0.05347690731287 x_pred[1,19] - 0.017990717664361 x_pred[1,20]
   + 0.0320425592362881 x_pred[1,21] - 0.00844938494265079 x_pred[1,22]
   + 0.0136067857965827 x_pred[1,23] - 0.0335675068199635 x_pred[1,24]
   - 0.0264249034225941 x_pred[1,25] - 0.6215103268623352 x_pred[1,26]
   + 0.0277509745210409 x_pred[1,27] + 0.0224490519613028 x_pred[1,28]
   + 0.0499814189970493 x_pred[1,29] + 0.0646465718746185 x_pred[1,30]
   + 0.0247279480099678 x_pred[1,31] + 0.00226102187298238 x_pred[1,32]
   - 0.00873131770640612 x_pred[1,33] + 0.00892213732004166 x_pred[1,34]
   - 0.0375380851328373 x_pred[1,35] - 0.0398808568716049 x_pred[1,36]
   + sequential0.linear_0.act[0,65] = -0.4805811941623688
 sequential0.linear_0.R301: 0.179904505610466 x_pred[1,0]
   + 0.0319061130285263 x_pred[1,1] + 0.2732013165950775 x_pred[1,2]
   + 0.6980294585227966 x_pred[1,3] + 0.353763610124588 x_pred[1,4]
   - 0.0775303840637207 x_pred[1,5] + 0.1145454570651054 x_pred[1,6]
   + 0.1072142124176025 x_pred[1,7] - 0.0971283987164497 x_pred[1,8]
   - 0.0385086238384247 x_pred[1,9] + 0.00611537648364902 x_pred[1,10]
   + 0.0561144202947617 x_pred[1,11] + 0.0990878567099571 x_pred[1,12]
   - 0.1665790230035782 x_pred[1,13] + 0.0170226655900478 x_pred[1,14]
   + 0.0167027935385704 x_pred[1,15] - 0.0626375377178192 x_pred[1,16]
   + 0.0190125554800034 x_pred[1,17] + 0.0838567838072777 x_pred[1,18]
   - 0.0170740876346827 x_pred[1,19] - 0.1282245665788651 x_pred[1,20]
   - 0.0457139909267426 x_pred[1,21] + 0.1568528413772583 x_pred[1,22]
   - 0.0778690949082375 x_pred[1,23] + 0.1219067052006721 x_pred[1,24]
   + 0.1129622533917427 x_pred[1,25] + 0.1224503293633461 x_pred[1,26]
   - 0.1013452410697937 x_pred[1,27] - 0.1283372193574905 x_pred[1,28]
   + 0.0461717136204243 x_pred[1,29] - 0.1284895986318588 x_pred[1,30]
   - 0.0944091826677322 x_pred[1,31] - 0.0143410135060549 x_pred[1,32]
   + 0.091057226061821 x_pred[1,33] - 0.0120675908401608 x_pred[1,34]
   - 0.1313165426254272 x_pred[1,35] - 0.1849961429834366 x_pred[1,36]
   + sequential0.linear_0.act[0,66] = 0.0599355734884739
 sequential0.linear_0.R302: - 0.00889528635889292 x_pred[1,0]
   + 0.1314415335655212 x_pred[1,1] + 0.0153907937929034 x_pred[1,2]
   + 0.1627863049507141 x_pred[1,3] + 0.0783902853727341 x_pred[1,4]
   + 0.0911056846380234 x_pred[1,5] - 0.0392553694546223 x_pred[1,6]
   + 0.1096622571349144 x_pred[1,7] + 0.1166467815637589 x_pred[1,8]
   - 0.0249226782470942 x_pred[1,9] + 0.0888948887586594 x_pred[1,10]
   - 0.0278860758990049 x_pred[1,11] - 0.0456470660865307 x_pred[1,12]
   - 0.0445567145943642 x_pred[1,13] + 0.0683922916650772 x_pred[1,14]
   + 0.0736804604530334 x_pred[1,15] - 0.0424777418375015 x_pred[1,16]
   - 0.0441139005124569 x_pred[1,17] + 0.0613038912415504 x_pred[1,18]
   - 0.1011966690421104 x_pred[1,19] + 0.00661979103460908 x_pred[1,20]
   - 0.0567939877510071 x_pred[1,21] - 0.104100689291954 x_pred[1,22]
   - 0.045003779232502 x_pred[1,23] + 0.1293356716632843 x_pred[1,24]
   - 0.1173110455274582 x_pred[1,25] + 0.0769446566700935 x_pred[1,26]
   + 0.0374650880694389 x_pred[1,27] + 0.1834877133369446 x_pred[1,28]
   - 0.032567210495472 x_pred[1,29] + 0.0780277103185654 x_pred[1,30]
   - 0.0181606113910675 x_pred[1,31] + 0.0497547462582588 x_pred[1,32]
   + 0.1169595718383789 x_pred[1,33] - 0.0600862316787243 x_pred[1,34]
   + 0.0315245017409325 x_pred[1,35] - 0.1335143744945526 x_pred[1,36]
   + sequential0.linear_0.act[0,67] = -0.0399228185415268
 sequential0.linear_0.R303: 0.0151307880878448 x_pred[1,0]
   - 0.04552161693573 x_pred[1,1] + 0.1217392310500145 x_pred[1,2]
   - 0.0123827485367656 x_pred[1,3] + 0.0598829984664917 x_pred[1,4]
   - 0.2232077866792679 x_pred[1,5] - 0.1354878097772598 x_pred[1,6]
   + 0.1447764337062836 x_pred[1,7] + 0.1507836878299713 x_pred[1,8]
   + 0.0557134598493576 x_pred[1,9] + 0.1156250014901161 x_pred[1,10]
   + 0.1870052814483643 x_pred[1,11] + 0.00448857760056853 x_pred[1,12]
   - 0.0720233544707298 x_pred[1,13] - 0.00876148417592049 x_pred[1,14]
   + 0.0723878145217896 x_pred[1,15] - 0.0256267208606005 x_pred[1,16]
   - 0.1203728392720222 x_pred[1,17] + 0.0155429225414991 x_pred[1,18]
   + 0.0762367770075798 x_pred[1,19] + 0.083150826394558 x_pred[1,20]
   + 0.0647617802023888 x_pred[1,21] - 0.2677487730979919 x_pred[1,22]
   + 0.1328073740005493 x_pred[1,23] - 0.1229131668806076 x_pred[1,24]
   - 0.1629344671964645 x_pred[1,25] - 0.00428605498746037 x_pred[1,26]
   + 0.0223353430628777 x_pred[1,27] + 0.1097580045461655 x_pred[1,28]
   - 0.1510919630527496 x_pred[1,29] - 0.1712700575590134 x_pred[1,30]
   - 5.3355388808995485e-04 x_pred[1,31] - 0.1413167417049408 x_pred[1,32]
   + 0.1464542001485825 x_pred[1,33] - 0.0411366075277328 x_pred[1,34]
   + 0.0626855120062828 x_pred[1,35] - 0.0131022296845913 x_pred[1,36]
   + sequential0.linear_0.act[0,68] = -0.0849650651216507
 sequential0.linear_0.R304: - 0.026011461392045 x_pred[1,0]
   - 0.015979778021574 x_pred[1,1] + 0.2903318405151367 x_pred[1,2]
   - 0.0504798181355 x_pred[1,3] + 0.2079440951347351 x_pred[1,4]
   + 0.1030113324522972 x_pred[1,5] + 0.1239563226699829 x_pred[1,6]
   + 0.0257373806089163 x_pred[1,7] - 0.0942763388156891 x_pred[1,8]
   + 0.0962797403335571 x_pred[1,9] - 0.0406204722821712 x_pred[1,10]
   - 0.0506603196263313 x_pred[1,11] + 0.1090466231107712 x_pred[1,12]
   + 0.0178552661091089 x_pred[1,13] + 0.0697761252522469 x_pred[1,14]
   + 0.0875717997550964 x_pred[1,15] - 0.1303523778915405 x_pred[1,16]
   - 0.0498248375952244 x_pred[1,17] - 0.1536213159561157 x_pred[1,18]
   - 0.1649077087640762 x_pred[1,19] - 0.113170824944973 x_pred[1,20]
   - 0.0614657178521156 x_pred[1,21] + 0.2137597352266312 x_pred[1,22]
   + 0.1365662217140198 x_pred[1,23] + 0.1752013862133026 x_pred[1,24]
   + 0.0410909913480282 x_pred[1,25] - 0.220017671585083 x_pred[1,26]
   + 0.00752577278763056 x_pred[1,27] + 0.2080323994159698 x_pred[1,28]
   - 0.1350664794445038 x_pred[1,29] - 0.00706446776166558 x_pred[1,30]
   - 0.0400966145098209 x_pred[1,31] + 0.0404916927218437 x_pred[1,32]
   + 0.0376169718801975 x_pred[1,33] - 0.1259806901216507 x_pred[1,34]
   + 0.1968197077512741 x_pred[1,35] - 0.052214402705431 x_pred[1,36]
   + sequential0.linear_0.act[0,69] = -0.1359920650720596
 sequential0.linear_0.R305: - 0.0501770153641701 x_pred[1,0]
   + 0.00879157707095146 x_pred[1,1] + 0.1952496469020844 x_pred[1,2]
   + 0.1659340858459473 x_pred[1,3] - 0.011493650265038 x_pred[1,4]
   - 0.1591135561466217 x_pred[1,5] - 0.0849928334355354 x_pred[1,6]
   + 0.1182699277997017 x_pred[1,7] - 0.0211816504597664 x_pred[1,8]
   + 0.0554499216377735 x_pred[1,9] - 0.0713084265589714 x_pred[1,10]
   - 0.00378020294010639 x_pred[1,11] + 0.2060732543468475 x_pred[1,12]
   + 0.00676283473148942 x_pred[1,13] - 0.0468786545097828 x_pred[1,14]
   + 0.051389966160059 x_pred[1,15] - 0.03044817969203 x_pred[1,16]
   + 0.0274438131600618 x_pred[1,17] - 0.0163899604231119 x_pred[1,18]
   + 0.0408960022032261 x_pred[1,19] + 0.0290658492594957 x_pred[1,20]
   + 0.0119435423985124 x_pred[1,21] + 0.1027148216962814 x_pred[1,22]
   - 0.1478366255760193 x_pred[1,23] + 0.0241932664066553 x_pred[1,24]
   - 0.1818458437919617 x_pred[1,25] - 4.6807210310362279e-04 x_pred[1,26]
   + 0.0982747003436089 x_pred[1,27] - 0.0177842676639557 x_pred[1,28]
   + 0.00415589660406113 x_pred[1,29] - 0.1649752855300903 x_pred[1,30]
   - 0.00380183127708733 x_pred[1,31] - 0.0285823438316584 x_pred[1,32]
   - 0.0448084957897663 x_pred[1,33] - 0.0886755511164665 x_pred[1,34]
   + 0.0261037908494473 x_pred[1,35] - 0.1480423659086227 x_pred[1,36]
   + sequential0.linear_0.act[0,70] = -0.1388263702392578
 sequential0.linear_0.R306: 0.0704877078533173 x_pred[1,0]
   + 0.0802028700709343 x_pred[1,1] + 0.1366617232561111 x_pred[1,2]
   - 0.0420903638005257 x_pred[1,3] - 0.0240188427269459 x_pred[1,4]
   + 0.0371912345290184 x_pred[1,5] + 0.0290681477636099 x_pred[1,6]
   + 0.1092923283576965 x_pred[1,7] + 0.0733051002025604 x_pred[1,8]
   + 0.1024184450507164 x_pred[1,9] + 0.0946270599961281 x_pred[1,10]
   - 0.1060332879424095 x_pred[1,11] + 0.1508883684873581 x_pred[1,12]
   - 0.0281735174357891 x_pred[1,13] - 0.00391321908682585 x_pred[1,14]
   - 0.1183079406619072 x_pred[1,15] + 0.0683140084147453 x_pred[1,16]
   + 0.097202442586422 x_pred[1,17] - 0.0798512920737267 x_pred[1,18]
   - 0.0856782048940659 x_pred[1,19] + 0.0583268366754055 x_pred[1,20]
   - 0.0390387810766697 x_pred[1,21] + 0.0876507014036179 x_pred[1,22]
   - 0.0445275641977787 x_pred[1,23] - 0.0894560515880585 x_pred[1,24]
   + 0.0813024565577507 x_pred[1,25] + 0.0598984770476818 x_pred[1,26]
   + 0.054965503513813 x_pred[1,27] - 0.0527810975909233 x_pred[1,28]
   + 0.0295946542173624 x_pred[1,29] - 0.1293887346982956 x_pred[1,30]
   - 0.0420457497239113 x_pred[1,31] + 0.0486019514501095 x_pred[1,32]
   - 0.0820781588554382 x_pred[1,33] + 0.1482520997524261 x_pred[1,34]
   - 0.1288449168205261 x_pred[1,35] - 0.086656354367733 x_pred[1,36]
   + sequential0.linear_0.act[0,71] = -0.00957890693098307
 sequential0.linear_0.R307: 0.0924645140767097 x_pred[1,0]
   + 0.0298302955925465 x_pred[1,1] + 0.0419461391866207 x_pred[1,2]
   + 0.1607738435268402 x_pred[1,3] + 0.1343468427658081 x_pred[1,4]
   - 0.1089793741703033 x_pred[1,5] + 0.0757296606898308 x_pred[1,6]
   - 0.0494775883853436 x_pred[1,7] - 0.00218028435483575 x_pred[1,8]
   - 0.0211080592125654 x_pred[1,9] + 0.1383949220180511 x_pred[1,10]
   - 0.00282413372769952 x_pred[1,11] + 0.0845741704106331 x_pred[1,12]
   + 0.1322729140520096 x_pred[1,13] - 0.1603652089834213 x_pred[1,14]
   + 0.0558614432811737 x_pred[1,15] - 0.1154634356498718 x_pred[1,16]
   + 0.0505960397422314 x_pred[1,17] + 0.0107954367995262 x_pred[1,18]
   + 0.00827456079423428 x_pred[1,19] + 0.1068675667047501 x_pred[1,20]
   + 0.1341889202594757 x_pred[1,21] - 0.0171102862805128 x_pred[1,22]
   + 0.1301688998937607 x_pred[1,23] + 0.144325390458107 x_pred[1,24]
   + 0.1382935047149658 x_pred[1,25] + 0.1178465187549591 x_pred[1,26]
   - 0.0567903816699982 x_pred[1,27] - 0.0622071772813797 x_pred[1,28]
   + 0.0414175651967525 x_pred[1,29] + 0.0165917668491602 x_pred[1,30]
   + 0.155815064907074 x_pred[1,31] - 0.0181277114897966 x_pred[1,32]
   - 3.611106367316097e-04 x_pred[1,33] + 0.0607767477631569 x_pred[1,34]
   - 0.0926244482398033 x_pred[1,35] + 0.0753990039229393 x_pred[1,36]
   + sequential0.linear_0.act[0,72] = -0.1355837285518646
 sequential0.linear_0.R308: 0.1257196962833405 x_pred[1,0]
   + 0.0796584263443947 x_pred[1,1] + 0.0899489969015121 x_pred[1,2]
   + 0.0192987117916346 x_pred[1,3] + 0.0858706459403038 x_pred[1,4]
   - 0.0234066601842642 x_pred[1,5] + 0.0558384954929352 x_pred[1,6]
   + 0.1415646523237228 x_pred[1,7] + 0.1084539443254471 x_pred[1,8]
   - 0.0888519436120987 x_pred[1,9] - 0.0100329108536243 x_pred[1,10]
   + 0.0224206615239382 x_pred[1,11] + 0.0920175462961197 x_pred[1,12]
   + 0.0455648601055145 x_pred[1,13] - 0.099677674472332 x_pred[1,14]
   + 0.0230521261692047 x_pred[1,15] - 0.1342144757509232 x_pred[1,16]
   + 0.0317963548004627 x_pred[1,17] - 0.0847037732601166 x_pred[1,18]
   - 0.0300976056605577 x_pred[1,19] + 0.0398831777274609 x_pred[1,20]
   - 0.074449859559536 x_pred[1,21] - 0.00874619651585817 x_pred[1,22]
   - 0.0945470780134201 x_pred[1,23] + 0.1157616749405861 x_pred[1,24]
   + 0.0400202311575413 x_pred[1,25] - 0.0476440265774727 x_pred[1,26]
   + 0.1752424687147141 x_pred[1,27] + 0.1430390030145645 x_pred[1,28]
   - 0.1742002665996552 x_pred[1,29] - 0.1194525882601738 x_pred[1,30]
   + 0.0817070305347443 x_pred[1,31] - 0.1116460934281349 x_pred[1,32]
   + 0.1449974328279495 x_pred[1,33] + 0.1035813465714455 x_pred[1,34]
   + 0.0829617828130722 x_pred[1,35] + 0.1097177341580391 x_pred[1,36]
   + sequential0.linear_0.act[0,73] = -0.0516064614057541
 sequential0.linear_0.R309: - 0.0439007133245468 x_pred[1,0]
   + 0.2125774919986725 x_pred[1,1] + 0.2031981647014618 x_pred[1,2]
   + 3.217397689819336 x_pred[1,3] + 1.040200710296631 x_pred[1,4]
   + 0.0654207691550255 x_pred[1,5] - 0.00452812248840928 x_pred[1,6]
   + 0.0411997586488724 x_pred[1,7] + 0.0618277713656425 x_pred[1,8]
   - 0.00578173249959946 x_pred[1,9] - 0.0248273555189371 x_pred[1,10]
   - 0.0556175448000431 x_pred[1,11] - 0.0337526649236679 x_pred[1,12]
   - 0.0256147589534521 x_pred[1,13] - 0.0528333485126495 x_pred[1,14]
   + 0.00930219143629074 x_pred[1,15] + 0.3237995505332947 x_pred[1,16]
   - 0.0013477758038789 x_pred[1,17] - 0.0221901275217533 x_pred[1,18]
   - 0.0252773873507977 x_pred[1,19] - 0.1435286998748779 x_pred[1,20]
   + 0.1022020801901817 x_pred[1,21] - 0.0553100593388081 x_pred[1,22]
   - 0.0303713548928499 x_pred[1,23] - 0.0284465942531824 x_pred[1,24]
   - 0.0426902063190937 x_pred[1,25] - 0.3350848257541656 x_pred[1,26]
   + 0.0446786060929298 x_pred[1,27] + 0.1579837650060654 x_pred[1,28]
   - 0.0423517934978008 x_pred[1,29] + 0.0841240808367729 x_pred[1,30]
   + 0.00864448305219412 x_pred[1,31] - 0.0939525216817856 x_pred[1,32]
   - 0.0942303165793419 x_pred[1,33] + 0.00869184546172619 x_pred[1,34]
   + 0.1281222701072693 x_pred[1,35] - 0.0834284126758575 x_pred[1,36]
   + sequential0.linear_0.act[0,74] = 0.3415424525737762
 sequential0.linear_0.R310: 0.0654130727052689 x_pred[1,0]
   + 0.1119342297315598 x_pred[1,1] + 0.0243030767887831 x_pred[1,2]
   - 0.0749924704432487 x_pred[1,3] + 0.0323830842971802 x_pred[1,4]
   - 0.1557382643222809 x_pred[1,5] + 0.1088634431362152 x_pred[1,6]
   - 0.1790251284837723 x_pred[1,7] + 0.0640387982130051 x_pred[1,8]
   + 0.074288472533226 x_pred[1,9] - 0.0423420332372189 x_pred[1,10]
   + 0.0842209979891777 x_pred[1,11] - 0.0781708136200905 x_pred[1,12]
   - 0.0735313594341278 x_pred[1,13] - 0.2018103897571564 x_pred[1,14]
   + 0.05973045155406 x_pred[1,15] - 0.0535620152950287 x_pred[1,16]
   + 0.0548419058322906 x_pred[1,17] + 0.0570090301334858 x_pred[1,18]
   + 0.2131726443767548 x_pred[1,19] - 0.099825419485569 x_pred[1,20]
   + 0.00347090326249599 x_pred[1,21] + 0.0869764089584351 x_pred[1,22]
   - 0.0306726582348347 x_pred[1,23] - 0.061933770775795 x_pred[1,24]
   + 0.0620860941708088 x_pred[1,25] - 0.064683198928833 x_pred[1,26]
   - 0.104088194668293 x_pred[1,27] - 0.1330358982086182 x_pred[1,28]
   - 0.0718888565897942 x_pred[1,29] - 0.14053675532341 x_pred[1,30]
   + 0.00700811622664332 x_pred[1,31] + 0.100237563252449 x_pred[1,32]
   - 0.0053818142041564 x_pred[1,33] + 0.0936421826481819 x_pred[1,34]
   - 0.1996806561946869 x_pred[1,35] + 0.1993869841098785 x_pred[1,36]
   + sequential0.linear_0.act[0,75] = -0.1685636788606644
 sequential0.linear_0.R311: 0.0891074165701866 x_pred[1,0]
   + 0.0831445977091789 x_pred[1,1] + 0.0701732188463211 x_pred[1,2]
   - 0.0731926783919334 x_pred[1,3] + 0.1296684890985489 x_pred[1,4]
   - 0.0201516337692738 x_pred[1,5] - 0.0996031984686852 x_pred[1,6]
   + 0.0578450076282024 x_pred[1,7] + 0.2190420478582382 x_pred[1,8]
   - 0.1567804217338562 x_pred[1,9] - 0.0133982012048364 x_pred[1,10]
   + 0.0715934112668037 x_pred[1,11] - 7.1596773341298103e-04 x_pred[1,12]
   + 0.0595847927033901 x_pred[1,13] - 0.1417426615953445 x_pred[1,14]
   - 0.0718067958950996 x_pred[1,15] - 0.1290649473667145 x_pred[1,16]
   - 0.1983001232147217 x_pred[1,17] + 0.1012335270643234 x_pred[1,18]
   + 0.1041765362024307 x_pred[1,19] - 0.0698033794760704 x_pred[1,20]
   + 0.0375183261930943 x_pred[1,21] - 0.0591104216873646 x_pred[1,22]
   - 0.1839153170585632 x_pred[1,23] - 0.0501170381903648 x_pred[1,24]
   - 0.187588095664978 x_pred[1,25] + 0.0553102381527424 x_pred[1,26]
   + 0.1197713017463684 x_pred[1,27] - 0.1014049649238586 x_pred[1,28]
   + 0.0490464232861996 x_pred[1,29] - 0.0658562779426575 x_pred[1,30]
   - 0.0708241686224937 x_pred[1,31] - 0.0733556970953941 x_pred[1,32]
   - 0.0112021248787642 x_pred[1,33] + 0.0521798729896545 x_pred[1,34]
   + 0.150675892829895 x_pred[1,35] + 0.1696902811527252 x_pred[1,36]
   + sequential0.linear_0.act[0,76] = -0.0640922263264656
 sequential0.linear_0.R312: 0.11962029337883 x_pred[1,0]
   + 0.0575753338634968 x_pred[1,1] + 0.3014957308769226 x_pred[1,2]
   + 0.5645410418510437 x_pred[1,3] + 0.333601713180542 x_pred[1,4]
   + 0.1070313155651093 x_pred[1,5] - 0.004024479072541 x_pred[1,6]
   + 0.0805347189307213 x_pred[1,7] + 0.0357636176049709 x_pred[1,8]
   - 0.0133899236097932 x_pred[1,9] - 0.15085469186306 x_pred[1,10]
   - 0.1522033214569092 x_pred[1,11] + 0.0541046820580959 x_pred[1,12]
   - 0.0586469098925591 x_pred[1,13] + 0.00202644243836403 x_pred[1,14]
   - 0.125047504901886 x_pred[1,15] + 0.0554645732045174 x_pred[1,16]
   + 3.2728782389312983e-04 x_pred[1,17] + 0.0858693942427635 x_pred[1,18]
   - 0.0952500030398369 x_pred[1,19] + 0.1023598164319992 x_pred[1,20]
   + 0.0107198292389512 x_pred[1,21] - 0.0989067554473877 x_pred[1,22]
   + 0.092757485806942 x_pred[1,23] - 0.0887725055217743 x_pred[1,24]
   + 0.0495872907340527 x_pred[1,25] + 0.0258910562843084 x_pred[1,26]
   - 0.1406111270189285 x_pred[1,27] - 0.1030898317694664 x_pred[1,28]
   + 0.1482212096452713 x_pred[1,29] - 0.1358730643987656 x_pred[1,30]
   + 0.0663610026240349 x_pred[1,31] - 0.0104222595691681 x_pred[1,32]
   + 0.1141586601734161 x_pred[1,33] - 0.0788215026259422 x_pred[1,34]
   + 0.0315265022218227 x_pred[1,35] + 0.0493289940059185 x_pred[1,36]
   + sequential0.linear_0.act[0,77] = 0.0789553672075272
 sequential0.linear_0.R313: 0.1331750750541687 x_pred[1,0]
   + 0.081128291785717 x_pred[1,1] + 0.2738215029239655 x_pred[1,2]
   + 0.7631630301475525 x_pred[1,3] + 0.3672476410865784 x_pred[1,4]
   - 0.1402489095926285 x_pred[1,5] + 0.1322385370731354 x_pred[1,6]
   - 0.1636098325252533 x_pred[1,7] + 0.1210625991225243 x_pred[1,8]
   - 0.094464585185051 x_pred[1,9] + 0.0920968279242516 x_pred[1,10]
   - 0.1588307321071625 x_pred[1,11] - 0.0764289051294327 x_pred[1,12]
   + 0.0748391002416611 x_pred[1,13] + 0.0591893941164017 x_pred[1,14]
   - 0.1206648126244545 x_pred[1,15] - 0.1329890787601471 x_pred[1,16]
   + 0.0824291855096817 x_pred[1,17] - 0.1173516660928726 x_pred[1,18]
   - 0.00973451416939497 x_pred[1,19] + 0.1484645158052444 x_pred[1,20]
   + 0.1100037395954132 x_pred[1,21] + 0.1306636333465576 x_pred[1,22]
   - 0.066661149263382 x_pred[1,23] - 1.7700069292914122e-04 x_pred[1,24]
   - 0.1243675053119659 x_pred[1,25] + 0.2855645418167114 x_pred[1,26]
   + 0.0673157945275307 x_pred[1,27] + 0.00390723347663879 x_pred[1,28]
   + 0.1311406493186951 x_pred[1,29] + 0.0301171895116568 x_pred[1,30]
   + 0.089299701154232 x_pred[1,31] + 0.0628858879208565 x_pred[1,32]
   + 0.0800746083259583 x_pred[1,33] + 0.1325933337211609 x_pred[1,34]
   - 0.00965792406350374 x_pred[1,35] - 0.1023189052939415 x_pred[1,36]
   + sequential0.linear_0.act[0,78] = 0.0509535409510136
 sequential0.linear_0.R314: - 0.2473425269126892 x_pred[1,0]
   - 0.1214044913649559 x_pred[1,1] + 0.566019594669342 x_pred[1,2]
   - 0.8596454858779907 x_pred[1,3] - 0.8852627873420715 x_pred[1,4]
   + 0.0593142434954643 x_pred[1,5] - 0.0025572 x_pred[1,6]
   + 0.0112820249050856 x_pred[1,7] + 0.0678209960460663 x_pred[1,8]
   - 0.0170903373509645 x_pred[1,9] + 0.1036155968904495 x_pred[1,10]
   - 0.0562292598187923 x_pred[1,11] + 0.0437167137861252 x_pred[1,12]
   + 0.0723244398832321 x_pred[1,13] + 0.0290599577128887 x_pred[1,14]
   + 0.0487474352121353 x_pred[1,15] - 0.0459459312260151 x_pred[1,16]
   - 0.074715331196785 x_pred[1,17] - 0.0805529803037643 x_pred[1,18]
   + 0.1066752970218658 x_pred[1,19] + 0.0537229217588902 x_pred[1,20]
   + 0.000812181 x_pred[1,21] + 0.0682040154933929 x_pred[1,22]
   - 0.0155295440927148 x_pred[1,23] + 0.1062918901443481 x_pred[1,24]
   + 0.1520767509937286 x_pred[1,25] - 0.245622843503952 x_pred[1,26]
   - 5.1771476864814758e-04 x_pred[1,27] + 0.0965192094445229 x_pred[1,28]
   - 0.0802969112992287 x_pred[1,29] - 0.028158450499177 x_pred[1,30]
   + 0.0663710832595825 x_pred[1,31] - 0.0562149956822395 x_pred[1,32]
   + 0.0982133522629738 x_pred[1,33] + 0.1217904388904572 x_pred[1,34]
   + 0.00975139066576958 x_pred[1,35] + 0.0264457333832979 x_pred[1,36]
   + sequential0.linear_0.act[0,79] = 0.345984160900116
 sequential0.linear_0.R315: - 0.0373156443238258 x_pred[1,0]
   - 0.0486181266605854 x_pred[1,1] + 0.0835744366049767 x_pred[1,2]
   + 0.2877120673656464 x_pred[1,3] + 0.1175483167171478 x_pred[1,4]
   - 0.0761658251285553 x_pred[1,5] - 0.0064834114164114 x_pred[1,6]
   + 0.0143274022266269 x_pred[1,7] + 0.0795333087444305 x_pred[1,8]
   - 0.0832786113023758 x_pred[1,9] + 0.1106654554605484 x_pred[1,10]
   + 0.0450437106192112 x_pred[1,11] + 0.1814061254262924 x_pred[1,12]
   - 0.0650021731853485 x_pred[1,13] - 0.1032294780015945 x_pred[1,14]
   + 0.0362699665129185 x_pred[1,15] + 0.0515925958752632 x_pred[1,16]
   - 0.1893211454153061 x_pred[1,17] + 0.0770505964756012 x_pred[1,18]
   - 0.1707960963249207 x_pred[1,19] + 0.1817706227302551 x_pred[1,20]
   + 0.1672541797161102 x_pred[1,21] + 0.00545566249638796 x_pred[1,22]
   - 0.0807591825723648 x_pred[1,23] - 0.0272813066840172 x_pred[1,24]
   + 0.0389536432921886 x_pred[1,25] - 0.0125087201595306 x_pred[1,26]
   - 0.0171306971460581 x_pred[1,27] + 0.1489575356245041 x_pred[1,28]
   + 0.0767178982496262 x_pred[1,29] + 0.0868853032588959 x_pred[1,30]
   + 0.1438027918338776 x_pred[1,31] - 0.0147149860858917 x_pred[1,32]
   - 0.0459525249898434 x_pred[1,33] - 0.1925213038921356 x_pred[1,34]
   + 0.0844085067510605 x_pred[1,35] + 0.0908856317400932 x_pred[1,36]
   + sequential0.linear_0.act[0,80] = -0.2065817713737488
 sequential0.linear_0.R316: 0.1051856800913811 x_pred[1,0]
   - 0.0347967594861984 x_pred[1,1] + 0.1645950824022293 x_pred[1,2]
   + 1.818526864051819 x_pred[1,3] + 0.5628558993339539 x_pred[1,4]
   + 0.0117648225277662 x_pred[1,5] - 0.0697302669286728 x_pred[1,6]
   - 0.0957074910402298 x_pred[1,7] - 0.0817860588431358 x_pred[1,8]
   + 0.1076568514108658 x_pred[1,9] + 0.1204268857836723 x_pred[1,10]
   + 0.1475695073604584 x_pred[1,11] - 0.1613770574331284 x_pred[1,12]
   + 0.079469345510006 x_pred[1,13] - 0.0234509482979774 x_pred[1,14]
   - 0.1034848019480705 x_pred[1,15] + 0.0736161470413208 x_pred[1,16]
   - 0.1147915497422218 x_pred[1,17] - 0.0780220702290535 x_pred[1,18]
   - 0.0583672039210796 x_pred[1,19] + 0.0337177254259586 x_pred[1,20]
   - 0.0638969913125038 x_pred[1,21] + 0.1118084043264389 x_pred[1,22]
   + 0.00699563464149833 x_pred[1,23] + 0.0158242359757423 x_pred[1,24]
   + 0.0669864118099213 x_pred[1,25] + 0.1610248535871506 x_pred[1,26]
   + 0.1059747636318207 x_pred[1,27] + 0.1165206879377365 x_pred[1,28]
   - 0.0163038410246372 x_pred[1,29] - 0.0830060094594955 x_pred[1,30]
   - 0.0330008752644062 x_pred[1,31] + 0.00986302178353071 x_pred[1,32]
   + 0.1438978165388107 x_pred[1,33] - 0.0546138770878315 x_pred[1,34]
   - 0.1246604099869728 x_pred[1,35] + 0.0411269515752792 x_pred[1,36]
   + sequential0.linear_0.act[0,81] = 0.00651578977704048
 sequential0.linear_0.R317: 0.0485900789499283 x_pred[1,0]
   - 0.08729637414217 x_pred[1,1] - 0.00319067295640707 x_pred[1,2]
   + 0.0645028352737427 x_pred[1,3] + 0.1336362957954407 x_pred[1,4]
   - 0.1165537461638451 x_pred[1,5] - 0.0306582078337669 x_pred[1,6]
   + 0.1323584020137787 x_pred[1,7] - 0.0295993331819773 x_pred[1,8]
   + 0.0370363183319569 x_pred[1,9] - 0.0322518870234489 x_pred[1,10]
   - 0.0917734727263451 x_pred[1,11] - 0.0506442114710808 x_pred[1,12]
   - 0.0299152322113514 x_pred[1,13] + 0.1595181226730347 x_pred[1,14]
   - 0.0967622473835945 x_pred[1,15] - 0.00752025749534369 x_pred[1,16]
   - 0.1364800631999969 x_pred[1,17] - 0.041933361440897 x_pred[1,18]
   + 0.0488186664879322 x_pred[1,19] - 0.1023211106657982 x_pred[1,20]
   - 0.1188920438289642 x_pred[1,21] + 0.1251524686813354 x_pred[1,22]
   + 0.1402524411678314 x_pred[1,23] - 0.0776461586356163 x_pred[1,24]
   + 0.0909271389245987 x_pred[1,25] - 0.0883134454488754 x_pred[1,26]
   - 0.0508025623857975 x_pred[1,27] + 0.1298293769359589 x_pred[1,28]
   - 0.0855870470404625 x_pred[1,29] - 0.0812953263521194 x_pred[1,30]
   - 0.0266303513199091 x_pred[1,31] + 0.0666714981198311 x_pred[1,32]
   + 0.0715952143073082 x_pred[1,33] + 0.0702038630843163 x_pred[1,34]
   + 0.054905790835619 x_pred[1,35] + 0.1358670741319656 x_pred[1,36]
   + sequential0.linear_0.act[0,82] = -0.133227676153183
 sequential0.linear_0.R318: 0.2589654624462128 x_pred[1,0]
   - 0.0263270623981953 x_pred[1,1] - 0.7280179858207703 x_pred[1,2]
   + 1.937027215957642 x_pred[1,3] + 3.0862877368927 x_pred[1,4]
   + 0.1830861270427704 x_pred[1,5] + 0.0779638439416885 x_pred[1,6]
   - 0.1413063704967499 x_pred[1,7] - 0.2079300880432129 x_pred[1,8]
   + 0.2106558531522751 x_pred[1,9] + 0.0330835543572903 x_pred[1,10]
   - 0.1687224805355072 x_pred[1,11] - 0.3185116052627563 x_pred[1,12]
   + 0.0750054717063904 x_pred[1,13] + 0.1477241516113281 x_pred[1,14]
   - 0.0648490265011787 x_pred[1,15] + 0.353226363658905 x_pred[1,16]
   + 0.00717352516949177 x_pred[1,17] + 0.1060641631484032 x_pred[1,18]
   - 0.162530243396759 x_pred[1,19] - 0.116595558822155 x_pred[1,20]
   + 0.069400891661644 x_pred[1,21] + 0.1195037811994553 x_pred[1,22]
   + 0.1101380661129951 x_pred[1,23] + 0.0127606140449643 x_pred[1,24]
   + 0.0847714766860008 x_pred[1,25] - 1.08096444606781 x_pred[1,26]
   + 0.1895166486501694 x_pred[1,27] + 0.2092304229736328 x_pred[1,28]
   - 0.0428326465189457 x_pred[1,29] + 0.0358743853867054 x_pred[1,30]
   - 0.1218115910887718 x_pred[1,31] - 0.3053677678108215 x_pred[1,32]
   - 0.2822074592113495 x_pred[1,33] + 0.1899304836988449 x_pred[1,34]
   + 0.0868362486362457 x_pred[1,35] - 0.0350959673523903 x_pred[1,36]
   + sequential0.linear_0.act[0,83] = -0.2369799315929413
 sequential0.linear_0.R319: 0.0968127474188805 x_pred[1,0]
   + 0.0730521753430367 x_pred[1,1] + 0.1320724934339523 x_pred[1,2]
   + 0.1367333233356476 x_pred[1,3] + 0.0233441200107336 x_pred[1,4]
   - 0.1582307070493698 x_pred[1,5] + 0.087650291621685 x_pred[1,6]
   + 0.0581158474087715 x_pred[1,7] + 0.1642661839723587 x_pred[1,8]
   + 0.0364649593830109 x_pred[1,9] + 0.1987393498420715 x_pred[1,10]
   - 0.0649709552526474 x_pred[1,11] + 0.0988989695906639 x_pred[1,12]
   - 0.0494734309613705 x_pred[1,13] - 0.1136734262108803 x_pred[1,14]
   + 0.0851688534021378 x_pred[1,15] - 0.111810140311718 x_pred[1,16]
   - 0.1913805305957794 x_pred[1,17] + 0.0973656624555588 x_pred[1,18]
   + 0.0903148204088211 x_pred[1,19] + 0.0298018045723438 x_pred[1,20]
   - 0.1310377418994904 x_pred[1,21] + 0.123695082962513 x_pred[1,22]
   + 0.0653630793094635 x_pred[1,23] - 0.1320387125015259 x_pred[1,24]
   - 0.1383579224348068 x_pred[1,25] + 0.0248205959796906 x_pred[1,26]
   + 0.0573190189898014 x_pred[1,27] - 0.0703781843185425 x_pred[1,28]
   - 0.115501344203949 x_pred[1,29] + 0.02130595035851 x_pred[1,30]
   - 0.078854575753212 x_pred[1,31] - 0.0131170833483338 x_pred[1,32]
   + 0.0479295998811722 x_pred[1,33] - 0.1278570145368576 x_pred[1,34]
   + 0.1669845879077911 x_pred[1,35] + 0.040154617279768 x_pred[1,36]
   + sequential0.linear_0.act[0,84] = -0.0148427011445165
 sequential0.linear_0.R320: 0.0533085949718952 x_pred[1,0]
   - 0.066937729716301 x_pred[1,1] + 0.4683849215507507 x_pred[1,2]
   - 1.506313920021057 x_pred[1,3] - 0.6369566917419434 x_pred[1,4]
   - 0.0536971464753151 x_pred[1,5] - 0.0882465913891792 x_pred[1,6]
   + 0.0164176151156425 x_pred[1,7] + 0.0350166857242584 x_pred[1,8]
   - 0.0330921784043312 x_pred[1,9] - 0.1352479308843613 x_pred[1,10]
   + 0.1020044460892677 x_pred[1,11] - 0.0751747861504555 x_pred[1,12]
   + 0.1233190894126892 x_pred[1,13] + 0.0141039481386542 x_pred[1,14]
   - 0.1419750303030014 x_pred[1,15] + 0.1979824304580688 x_pred[1,16]
   + 0.102830208837986 x_pred[1,17] - 0.0116415377706289 x_pred[1,18]
   - 0.0189370661973953 x_pred[1,19] - 0.0702402889728546 x_pred[1,20]
   + 0.1022605821490288 x_pred[1,21] - 0.0959920063614845 x_pred[1,22]
   - 0.0582103580236435 x_pred[1,23] + 0.0361375212669373 x_pred[1,24]
   - 0.0241128001362085 x_pred[1,25] - 0.1650805324316025 x_pred[1,26]
   - 0.031266164034605 x_pred[1,27] + 0.0423865281045437 x_pred[1,28]
   + 0.0563956722617149 x_pred[1,29] + 0.0820582285523415 x_pred[1,30]
   - 0.0411516651511192 x_pred[1,31] - 0.0120887747034431 x_pred[1,32]
   + 0.1198725700378418 x_pred[1,33] + 0.0531468652188778 x_pred[1,34]
   - 0.1524967104196548 x_pred[1,35] - 0.0872470885515213 x_pred[1,36]
   + sequential0.linear_0.act[0,85] = 0.1545388996601105
 sequential0.linear_0.R321: 0.1480997353792191 x_pred[1,0]
   - 0.4074429273605347 x_pred[1,1] + 0.0897348150610924 x_pred[1,2]
   + 7.680750370025635 x_pred[1,3] + 0.6276934742927551 x_pred[1,4]
   + 0.0161519516259432 x_pred[1,5] + 0.0953502058982849 x_pred[1,6]
   - 0.027583310380578 x_pred[1,7] + 0.0822760164737701 x_pred[1,8]
   - 0.065774030983448 x_pred[1,9] + 0.0349465981125832 x_pred[1,10]
   + 0.0467578694224358 x_pred[1,11] + 0.0152948908507824 x_pred[1,12]
   - 5.7039124658331275e-04 x_pred[1,13] - 0.1965645849704742 x_pred[1,14]
   - 0.0800151228904724 x_pred[1,15] + 0.3807147145271301 x_pred[1,16]
   + 0.1826412975788116 x_pred[1,17] + 0.0249959342181683 x_pred[1,18]
   - 0.1198483258485794 x_pred[1,19] - 0.0499919503927231 x_pred[1,20]
   + 0.1566342264413834 x_pred[1,21] + 0.0612625405192375 x_pred[1,22]
   + 0.0979845747351646 x_pred[1,23] - 0.1746110171079636 x_pred[1,24]
   + 0.088770367205143 x_pred[1,25] - 0.5110973715782166 x_pred[1,26]
   - 0.0267161726951599 x_pred[1,27] - 0.0911790356040001 x_pred[1,28]
   + 0.0639029070734978 x_pred[1,29] - 0.0704195722937584 x_pred[1,30]
   + 0.0454690158367157 x_pred[1,31] + 0.0464301519095898 x_pred[1,32]
   + 0.1461194902658463 x_pred[1,33] + 0.0501729398965836 x_pred[1,34]
   + 0.0667567253112793 x_pred[1,35] + 0.1190807297825813 x_pred[1,36]
   + sequential0.linear_0.act[0,86] = -0.2143471837043762
 sequential0.linear_0.R322: 0.0686423629522324 x_pred[1,0]
   + 0.0878897979855537 x_pred[1,1] + 0.1798386871814728 x_pred[1,2]
   - 0.3544308543205261 x_pred[1,3] - 0.143122673034668 x_pred[1,4]
   - 0.1281181424856186 x_pred[1,5] - 0.0013501993380487 x_pred[1,6]
   - 0.1495322436094284 x_pred[1,7] + 0.1012461483478546 x_pred[1,8]
   - 0.00434741796925664 x_pred[1,9] + 0.0328955166041851 x_pred[1,10]
   + 0.0115662012249231 x_pred[1,11] + 0.0568682923913002 x_pred[1,12]
   - 0.1536686718463898 x_pred[1,13] + 0.00904281623661518 x_pred[1,14]
   + 0.0985084623098373 x_pred[1,15] - 0.0920968279242516 x_pred[1,16]
   + 0.0462770536541939 x_pred[1,17] + 0.00399846257641912 x_pred[1,18]
   + 0.0752207487821579 x_pred[1,19] - 0.0568350702524185 x_pred[1,20]
   + 0.0448201894760132 x_pred[1,21] - 0.0551042668521404 x_pred[1,22]
   + 0.0104077719151974 x_pred[1,23] - 0.1907889842987061 x_pred[1,24]
   + 0.0305290427058935 x_pred[1,25] + 0.0939566940069199 x_pred[1,26]
   + 6.0569768538698554e-04 x_pred[1,27] - 0.0528709255158901 x_pred[1,28]
   - 0.1041011661291122 x_pred[1,29] - 0.0202259086072445 x_pred[1,30]
   - 0.1015868335962296 x_pred[1,31] - 0.0284857675433159 x_pred[1,32]
   + 0.0642472133040428 x_pred[1,33] - 0.0253785382956266 x_pred[1,34]
   + 0.1384179890155792 x_pred[1,35] + 0.0924064964056015 x_pred[1,36]
   + sequential0.linear_0.act[0,87] = -0.00124793092254549
 sequential0.linear_0.R323: 0.1430679559707642 x_pred[1,0]
   + 0.143814891576767 x_pred[1,1] - 0.7396638989448547 x_pred[1,2]
   + 1.840311169624329 x_pred[1,3] + 3.136641025543213 x_pred[1,4]
   - 0.0198155380785465 x_pred[1,5] + 0.0896002128720284 x_pred[1,6]
   - 0.0707104653120041 x_pred[1,7] + 0.0387397296726704 x_pred[1,8]
   + 0.0374016724526882 x_pred[1,9] - 0.1112658604979515 x_pred[1,10]
   + 0.0155493672937155 x_pred[1,11] + 0.00521107809618115 x_pred[1,12]
   - 0.0349599085748196 x_pred[1,13] + 0.0717741847038269 x_pred[1,14]
   - 0.0208788085728884 x_pred[1,15] + 0.0874841958284378 x_pred[1,16]
   + 0.063902884721756 x_pred[1,17] - 0.0324507020413876 x_pred[1,18]
   + 0.00843645352870226 x_pred[1,19] + 0.0278656519949436 x_pred[1,20]
   + 0.048639852553606 x_pred[1,21] - 0.0168005805462599 x_pred[1,22]
   - 0.0405862852931023 x_pred[1,23] - 0.00262734317220747 x_pred[1,24]
   - 0.0404342636466026 x_pred[1,25] - 0.2086893022060394 x_pred[1,26]
   - 0.0495288595557213 x_pred[1,27] + 0.1001739427447319 x_pred[1,28]
   - 0.0131819127127528 x_pred[1,29] + 0.0230904873460531 x_pred[1,30]
   + 0.02884142100811 x_pred[1,31] - 0.0414122492074966 x_pred[1,32]
   - 0.0487765930593014 x_pred[1,33] - 0.0180664155632257 x_pred[1,34]
   + 0.0674111768603325 x_pred[1,35] - 0.0779916495084763 x_pred[1,36]
   + sequential0.linear_0.act[0,88] = -0.0549076534807682
 sequential0.linear_0.R324: - 0.0782621055841446 x_pred[1,0]
   + 0.0662403777241707 x_pred[1,1] - 0.0677205994725227 x_pred[1,2]
   + 0.064122661948204 x_pred[1,3] - 0.0194199755787849 x_pred[1,4]
   - 0.1225245520472527 x_pred[1,5] + 6.4707529963925481e-04 x_pred[1,6]
   + 0.1143174320459366 x_pred[1,7] + 0.00615468109026551 x_pred[1,8]
   - 0.0534861832857132 x_pred[1,9] - 0.1223200187087059 x_pred[1,10]
   - 0.0609868541359901 x_pred[1,11] + 0.1798141449689865 x_pred[1,12]
   + 0.0376611948013306 x_pred[1,13] + 0.0109052862972021 x_pred[1,14]
   - 0.0250840075314045 x_pred[1,15] - 0.0974075198173523 x_pred[1,16]
   - 0.1145064979791641 x_pred[1,17] - 0.1191259920597076 x_pred[1,18]
   - 0.0181471183896065 x_pred[1,19] + 0.1723039448261261 x_pred[1,20]
   + 0.0955950915813446 x_pred[1,21] - 0.0044725751504302 x_pred[1,22]
   + 0.1981771141290665 x_pred[1,23] + 0.0691076964139938 x_pred[1,24]
   + 0.020218612626195 x_pred[1,25] + 0.0982062444090843 x_pred[1,26]
   + 0.1743858754634857 x_pred[1,27] - 0.1230249404907227 x_pred[1,28]
   - 0.1103057339787483 x_pred[1,29] - 0.0586084127426147 x_pred[1,30]
   + 0.0705923512578011 x_pred[1,31] - 0.1668741703033447 x_pred[1,32]
   + 0.0382988005876541 x_pred[1,33] - 0.0415150262415409 x_pred[1,34]
   + 0.1332278847694397 x_pred[1,35] - 0.0461104102432728 x_pred[1,36]
   + sequential0.linear_0.act[0,89] = -0.1319546699523926
 sequential0.linear_0.R325: - 0.0561461336910725 x_pred[1,0]
   + 0.1853116154670715 x_pred[1,1] + 0.1562582701444626 x_pred[1,2]
   + 0.2121758013963699 x_pred[1,3] + 0.0547790639102459 x_pred[1,4]
   - 0.1814454048871994 x_pred[1,5] + 0.0533574558794498 x_pred[1,6]
   + 0.1014971137046814 x_pred[1,7] + 0.134754866361618 x_pred[1,8]
   + 0.1263534128665924 x_pred[1,9] - 0.0693933963775635 x_pred[1,10]
   + 0.2396007031202316 x_pred[1,11] - 0.1083298996090889 x_pred[1,12]
   - 0.0251481644809246 x_pred[1,13] - 0.0398935787379742 x_pred[1,14]
   - 0.0979954898357391 x_pred[1,15] - 0.1720447242259979 x_pred[1,16]
   - 0.071682870388031 x_pred[1,17] + 0.071845531463623 x_pred[1,18]
   - 0.1459997296333313 x_pred[1,19] - 0.1173674911260605 x_pred[1,20]
   + 0.1509809941053391 x_pred[1,21] - 0.1201815083622932 x_pred[1,22]
   - 0.0874379128217697 x_pred[1,23] + 0.1121685057878494 x_pred[1,24]
   + 0.038885124027729 x_pred[1,25] - 0.0622431635856628 x_pred[1,26]
   + 0.0696716606616974 x_pred[1,27] - 0.1600718200206757 x_pred[1,28]
   - 0.072770319879055 x_pred[1,29] - 0.0496742129325867 x_pred[1,30]
   + 0.0388562269508839 x_pred[1,31] + 0.105823740363121 x_pred[1,32]
   + 0.0280338730663061 x_pred[1,33] - 0.0174152608960867 x_pred[1,34]
   + 0.0511650890111923 x_pred[1,35] - 0.1598147302865982 x_pred[1,36]
   + sequential0.linear_0.act[0,90] = -0.2126599252223969
 sequential0.linear_0.R326: - 0.0783726945519447 x_pred[1,0]
   - 0.0194016620516777 x_pred[1,1] - 0.0511272922158241 x_pred[1,2]
   + 0.0360173210501671 x_pred[1,3] - 0.1033575832843781 x_pred[1,4]
   - 0.0378441959619522 x_pred[1,5] - 0.0267237406224012 x_pred[1,6]
   + 0.0218941327184439 x_pred[1,7] - 0.111504815518856 x_pred[1,8]
   + 0.0646828562021255 x_pred[1,9] - 0.0783914104104042 x_pred[1,10]
   - 0.00261181010864675 x_pred[1,11] - 0.114982470870018 x_pred[1,12]
   + 0.0912957563996315 x_pred[1,13] - 0.1655360013246536 x_pred[1,14]
   - 0.1085459142923355 x_pred[1,15] - 0.1117808893322945 x_pred[1,16]
   + 0.0690507888793945 x_pred[1,17] - 0.0564735382795334 x_pred[1,18]
   + 0.0768606960773468 x_pred[1,19] - 0.0892426818609238 x_pred[1,20]
   + 0.0410158596932888 x_pred[1,21] - 0.0405951403081417 x_pred[1,22]
   - 0.1534516215324402 x_pred[1,23] - 0.024283142760396 x_pred[1,24]
   - 0.2645292580127716 x_pred[1,25] + 0.0272908471524715 x_pred[1,26]
   + 0.0638403445482254 x_pred[1,27] + 0.1226536184549332 x_pred[1,28]
   - 0.145379438996315 x_pred[1,29] + 0.0786705240607262 x_pred[1,30]
   + 0.0744902044534683 x_pred[1,31] - 0.00315559864975512 x_pred[1,32]
   + 0.160217672586441 x_pred[1,33] + 0.082941360771656 x_pred[1,34]
   - 0.0587776638567448 x_pred[1,35] + 0.0787461325526237 x_pred[1,36]
   + sequential0.linear_0.act[0,91] = -0.1568705439567566
 sequential0.linear_0.R327: - 0.0329280979931355 x_pred[1,0]
   - 0.00789941474795341 x_pred[1,1] + 0.1461332142353058 x_pred[1,2]
   + 0.7221786379814148 x_pred[1,3] + 0.383213222026825 x_pred[1,4]
   + 0.1286645382642746 x_pred[1,5] - 0.1104859039187431 x_pred[1,6]
   - 0.0394347086548805 x_pred[1,7] - 0.0273741967976093 x_pred[1,8]
   - 0.0537907592952251 x_pred[1,9] - 0.01153180655092 x_pred[1,10]
   + 0.0925060883164406 x_pred[1,11] + 0.0571091435849667 x_pred[1,12]
   - 0.1484723091125488 x_pred[1,13] + 0.0136978030204773 x_pred[1,14]
   - 0.1370066106319427 x_pred[1,15] + 0.0971644744277 x_pred[1,16]
   + 0.1314804404973984 x_pred[1,17] - 0.0878521576523781 x_pred[1,18]
   - 0.0386456400156021 x_pred[1,19] - 0.0101111680269241 x_pred[1,20]
   + 0.1615096926689148 x_pred[1,21] - 0.0320744216442108 x_pred[1,22]
   - 0.0833825394511223 x_pred[1,23] - 0.0174707137048244 x_pred[1,24]
   - 0.0031928897369653 x_pred[1,25] - 0.0948329567909241 x_pred[1,26]
   - 0.0881407931447029 x_pred[1,27] + 0.1100949123501778 x_pred[1,28]
   + 0.1855320334434509 x_pred[1,29] + 0.0379685908555984 x_pred[1,30]
   - 0.0316437296569347 x_pred[1,31] - 0.1519023180007935 x_pred[1,32]
   - 0.1790536195039749 x_pred[1,33] + 0.0915348753333092 x_pred[1,34]
   - 0.0813150256872177 x_pred[1,35] + 0.0940819606184959 x_pred[1,36]
   + sequential0.linear_0.act[0,92] = -0.0282078422605991
 sequential0.linear_0.R328: 0.1486278921365738 x_pred[1,0]
   - 0.068595714867115 x_pred[1,1] + 0.1460023075342178 x_pred[1,2]
   + 1.447165250778198 x_pred[1,3] + 0.5283516645431519 x_pred[1,4]
   + 0.09635990858078 x_pred[1,5] - 0.1339482218027115 x_pred[1,6]
   - 0.2276671230792999 x_pred[1,7] - 0.0310927517712116 x_pred[1,8]
   + 0.0734363049268723 x_pred[1,9] + 0.0732667371630669 x_pred[1,10]
   + 0.1235439702868462 x_pred[1,11] - 0.0776241794228554 x_pred[1,12]
   - 0.0070857796818018 x_pred[1,13] + 0.000442653 x_pred[1,14]
   + 0.0354622974991798 x_pred[1,15] - 0.0247984025627375 x_pred[1,16]
   - 0.0583761297166348 x_pred[1,17] + 0.1255972534418106 x_pred[1,18]
   - 0.0325935706496239 x_pred[1,19] + 0.0655331090092659 x_pred[1,20]
   - 0.105781652033329 x_pred[1,21] - 0.0523005872964859 x_pred[1,22]
   + 0.1818917095661163 x_pred[1,23] - 0.0067312978208065 x_pred[1,24]
   - 0.0670936033129692 x_pred[1,25] + 0.2328601628541946 x_pred[1,26]
   + 0.1409387141466141 x_pred[1,27] - 0.00674359267577529 x_pred[1,28]
   - 0.0160631146281958 x_pred[1,29] + 0.0648743286728859 x_pred[1,30]
   + 0.0842317715287209 x_pred[1,31] - 0.1071225330233574 x_pred[1,32]
   - 0.1042824760079384 x_pred[1,33] - 0.0981933102011681 x_pred[1,34]
   - 0.0612905435264111 x_pred[1,35] + 0.00856377277523279 x_pred[1,36]
   + sequential0.linear_0.act[0,93] = -0.0255399253219366
 sequential0.linear_0.R329: 0.1111276894807816 x_pred[1,0]
   - 0.0290224514901638 x_pred[1,1] - 0.4583014845848083 x_pred[1,2]
   + 1.575404763221741 x_pred[1,3] + 2.594328880310059 x_pred[1,4]
   + 0.00485658505931497 x_pred[1,5] - 0.010600415058434 x_pred[1,6]
   + 0.1006790995597839 x_pred[1,7] + 0.1253041177988052 x_pred[1,8]
   - 0.0774349570274353 x_pred[1,9] + 0.0525985956192017 x_pred[1,10]
   + 0.0753311663866043 x_pred[1,11] + 0.00726581923663616 x_pred[1,12]
   - 0.00767500139772892 x_pred[1,13] - 0.0378319770097733 x_pred[1,14]
   + 0.0110179213806987 x_pred[1,15] + 0.2751806974411011 x_pred[1,16]
   + 0.049379825592041 x_pred[1,17] - 0.1039559617638588 x_pred[1,18]
   + 0.0668060705065727 x_pred[1,19] + 0.0308465845882893 x_pred[1,20]
   + 0.0185522921383381 x_pred[1,21] + 0.0553424581885338 x_pred[1,22]
   + 0.0115949269384146 x_pred[1,23] - 0.0100346114486456 x_pred[1,24]
   + 0.0670327991247177 x_pred[1,25] - 0.4844024181365967 x_pred[1,26]
   + 0.1024719551205635 x_pred[1,27] + 0.1947624534368515 x_pred[1,28]
   + 0.0321355201303959 x_pred[1,29] - 0.1205925270915031 x_pred[1,30]
   - 0.0422832034528255 x_pred[1,31] - 0.1042782738804817 x_pred[1,32]
   - 0.0507278479635715 x_pred[1,33] - 0.0914047434926033 x_pred[1,34]
   + 0.1224266886711121 x_pred[1,35] + 0.0247068032622337 x_pred[1,36]
   + sequential0.linear_0.act[0,94] = -0.1044609844684601
 sequential0.linear_0.R330: 0.3262621760368347 x_pred[1,0]
   + 0.1304436177015305 x_pred[1,1] - 1.023927569389343 x_pred[1,2]
   + 3.449416637420654 x_pred[1,3] + 6.359857082366943 x_pred[1,4]
   + 0.0443283766508102 x_pred[1,5] + 0.0158553794026375 x_pred[1,6]
   + 0.0482510030269623 x_pred[1,7] + 0.0212633684277534 x_pred[1,8]
   - 0.0234095882624388 x_pred[1,9] - 0.0505385026335716 x_pred[1,10]
   + 0.0554042868316174 x_pred[1,11] - 0.00922300759702921 x_pred[1,12]
   + 0.0135239074006677 x_pred[1,13] + 0.0243137907236814 x_pred[1,14]
   + 0.0435297340154648 x_pred[1,15] + 0.7439208626747131 x_pred[1,16]
   - 0.0463219471275806 x_pred[1,17] + 0.0200096890330315 x_pred[1,18]
   + 0.0029715639539063 x_pred[1,19] + 0.0733181089162827 x_pred[1,20]
   - 0.0084720179438591 x_pred[1,21] - 0.0591087453067303 x_pred[1,22]
   - 0.0255127530544996 x_pred[1,23] - 0.0376708991825581 x_pred[1,24]
   + 0.0226057805120945 x_pred[1,25] - 0.9980765581130981 x_pred[1,26]
   - 0.0805373713374138 x_pred[1,27] - 0.1390435695648193 x_pred[1,28]
   + 0.00430405139923096 x_pred[1,29] - 0.0186938364058733 x_pred[1,30]
   + 0.0253234002739191 x_pred[1,31] + 0.0588421709835529 x_pred[1,32]
   + 0.0571413822472095 x_pred[1,33] - 0.0236423946917057 x_pred[1,34]
   - 0.0187241621315479 x_pred[1,35] + 0.0690389573574066 x_pred[1,36]
   + sequential0.linear_0.act[0,95] = -0.2024371176958084
 sequential0.linear_0.R331: 0.00520947715267539 x_pred[1,0]
   - 0.0118295 x_pred[1,1] + 0.0141358263790607 x_pred[1,2]
   + 0.1350442618131638 x_pred[1,3] - 0.0254892595112324 x_pred[1,4]
   - 0.0846504494547844 x_pred[1,5] + 0.1077571511268616 x_pred[1,6]
   + 0.0402938984334469 x_pred[1,7] - 0.0273773595690727 x_pred[1,8]
   - 0.1569543033838272 x_pred[1,9] + 0.1888911724090576 x_pred[1,10]
   - 0.1272913962602615 x_pred[1,11] + 0.2704166769981384 x_pred[1,12]
   + 0.1672018319368362 x_pred[1,13] - 0.2608901560306549 x_pred[1,14]
   + 0.0393291004002094 x_pred[1,15] - 0.024774044752121 x_pred[1,16]
   - 0.0441349670290947 x_pred[1,17] + 0.1830118149518967 x_pred[1,18]
   + 0.1469224244356155 x_pred[1,19] - 0.0605524256825447 x_pred[1,20]
   + 0.00381966098211706 x_pred[1,21] + 0.1085225790739059 x_pred[1,22]
   - 0.1133873611688614 x_pred[1,23] + 0.1349165588617325 x_pred[1,24]
   - 0.021440751850605 x_pred[1,25] - 0.0647259876132011 x_pred[1,26]
   - 0.0286250058561563 x_pred[1,27] + 0.0280970465391874 x_pred[1,28]
   + 0.0669947415590286 x_pred[1,29] + 0.0791602432727814 x_pred[1,30]
   - 0.0780259966850281 x_pred[1,31] - 0.1417860090732574 x_pred[1,32]
   - 0.0807507038116455 x_pred[1,33] + 0.0497074387967587 x_pred[1,34]
   - 0.00249193771742284 x_pred[1,35] + 0.0234202798455954 x_pred[1,36]
   + sequential0.linear_0.act[0,96] = -0.1669356226921082
 sequential0.linear_0.R332: - 0.2364723086357117 x_pred[1,0]
   - 0.2114730626344681 x_pred[1,1] + 0.1558228433132172 x_pred[1,2]
   + 1.809188961982727 x_pred[1,3] + 0.6681455373764038 x_pred[1,4]
   + 0.1923631578683853 x_pred[1,5] + 0.0845829322934151 x_pred[1,6]
   - 0.0398539528250694 x_pred[1,7] - 0.0623598918318748 x_pred[1,8]
   + 0.0402079112827778 x_pred[1,9] + 0.1702411025762558 x_pred[1,10]
   - 0.0161333028227091 x_pred[1,11] + 0.1133499220013618 x_pred[1,12]
   - 0.0691023245453835 x_pred[1,13] + 0.0795157700777054 x_pred[1,14]
   + 5.0220248522236943e-04 x_pred[1,15] + 0.2906907796859741 x_pred[1,16]
   - 0.077612929046154 x_pred[1,17] + 0.1616741418838501 x_pred[1,18]
   - 0.0607342571020126 x_pred[1,19] + 0.00545782456174493 x_pred[1,20]
   - 0.0568536520004272 x_pred[1,21] + 0.0261793024837971 x_pred[1,22]
   - 0.0205069165676832 x_pred[1,23] + 0.0669955983757973 x_pred[1,24]
   + 0.0619849413633347 x_pred[1,25] - 0.4758693873882294 x_pred[1,26]
   - 0.1035346463322639 x_pred[1,27] + 0.0715838074684143 x_pred[1,28]
   + 0.0238360054790974 x_pred[1,29] + 0.00781256332993507 x_pred[1,30]
   - 0.1409281194210052 x_pred[1,31] + 0.1431918889284134 x_pred[1,32]
   + 0.131153479218483 x_pred[1,33] + 0.010970258153975 x_pred[1,34]
   + 0.0530182458460331 x_pred[1,35] - 0.146235778927803 x_pred[1,36]
   + sequential0.linear_0.act[0,97] = -0.174435168504715
 sequential0.linear_0.R333: - 0.2488167732954025 x_pred[1,0]
   - 0.0351479575037956 x_pred[1,1] + 0.1198651865124702 x_pred[1,2]
   + 0.9776270985603333 x_pred[1,3] + 0.5802426934242249 x_pred[1,4]
   - 0.00774219492450356 x_pred[1,5] - 0.1110913157463074 x_pred[1,6]
   + 0.00964591279625893 x_pred[1,7] - 0.0354230329394341 x_pred[1,8]
   + 0.1592584997415543 x_pred[1,9] - 0.0247938018292189 x_pred[1,10]
   - 0.1363905221223831 x_pred[1,11] - 0.1216378957033157 x_pred[1,12]
   + 0.0324586667120457 x_pred[1,13] + 0.0563717819750309 x_pred[1,14]
   + 0.0659231618046761 x_pred[1,15] + 0.3835026919841766 x_pred[1,16]
   + 0.1242409572005272 x_pred[1,17] + 0.0470755882561207 x_pred[1,18]
   + 0.0638828799128532 x_pred[1,19] - 0.0394787788391113 x_pred[1,20]
   - 0.1413009613752365 x_pred[1,21] + 0.0453349314630032 x_pred[1,22]
   + 0.1673054546117783 x_pred[1,23] - 0.0675036832690239 x_pred[1,24]
   + 0.178213506937027 x_pred[1,25] - 0.5857844352722168 x_pred[1,26]
   + 0.00431884964928031 x_pred[1,27] - 0.1430307030677795 x_pred[1,28]
   + 0.00621514581143856 x_pred[1,29] - 0.0930015295743942 x_pred[1,30]
   - 0.1239287182688713 x_pred[1,31] - 0.041261114180088 x_pred[1,32]
   - 0.032235074788332 x_pred[1,33] - 0.0439246445894241 x_pred[1,34]
   + 0.0595314390957355 x_pred[1,35] - 0.1992845833301544 x_pred[1,36]
   + sequential0.linear_0.act[0,98] = -0.1597671508789062
 sequential0.linear_0.R334: 0.0471300706267357 x_pred[1,0]
   + 0.160467118024826 x_pred[1,1] + 0.2639396190643311 x_pred[1,2]
   + 0.5621535181999207 x_pred[1,3] + 0.2943728864192963 x_pred[1,4]
   + 0.0203867219388485 x_pred[1,5] - 0.0399996750056744 x_pred[1,6]
   + 0.0494765043258667 x_pred[1,7] - 0.0126864239573479 x_pred[1,8]
   + 0.0576443672180176 x_pred[1,9] + 0.104937307536602 x_pred[1,10]
   - 0.0126686673611403 x_pred[1,11] - 0.0360592417418957 x_pred[1,12]
   - 0.1244644597172737 x_pred[1,13] + 0.1614207774400711 x_pred[1,14]
   + 0.059023592621088 x_pred[1,15] + 0.132446214556694 x_pred[1,16]
   - 0.0488423928618431 x_pred[1,17] + 0.0636529698967934 x_pred[1,18]
   - 0.0439741648733616 x_pred[1,19] - 0.0771960690617561 x_pred[1,20]
   + 0.0678470060229301 x_pred[1,21] + 0.0154702132567763 x_pred[1,22]
   + 0.05141431838274 x_pred[1,23] - 0.1691631972789764 x_pred[1,24]
   + 0.155855655670166 x_pred[1,25] + 0.0843801200389862 x_pred[1,26]
   - 0.1315891742706299 x_pred[1,27] + 0.0426257774233818 x_pred[1,28]
   + 0.1198495998978615 x_pred[1,29] + 0.1253898590803146 x_pred[1,30]
   + 0.1241622716188431 x_pred[1,31] - 0.1140804290771484 x_pred[1,32]
   + 0.1307591795921326 x_pred[1,33] - 0.0599365234375 x_pred[1,34]
   + 0.1003008410334587 x_pred[1,35] - 0.1013656035065651 x_pred[1,36]
   + sequential0.linear_0.act[0,99] = -0.00444916728883982
 sequential0.linear_0.R335: - 0.0230705682188272 x_pred[1,0]
   + 0.4177829325199127 x_pred[1,1] + 0.2310487627983093 x_pred[1,2]
   - 1.248430609703064 x_pred[1,3] - 1.242628812789917 x_pred[1,4]
   + 0.1276796162128448 x_pred[1,5] - 0.00477909110486507 x_pred[1,6]
   - 0.1457648128271103 x_pred[1,7] + 0.0394931770861149 x_pred[1,8]
   + 0.1036431565880775 x_pred[1,9] + 0.0226399637758732 x_pred[1,10]
   - 0.0998054817318916 x_pred[1,11] - 0.1204704344272614 x_pred[1,12]
   + 0.0839582830667496 x_pred[1,13] + 0.0374247319996357 x_pred[1,14]
   + 0.0689868852496147 x_pred[1,15] - 0.00230595353059471 x_pred[1,16]
   - 0.0615765377879143 x_pred[1,17] + 0.0260352026671171 x_pred[1,18]
   - 0.0528416745364666 x_pred[1,19] - 0.0672525614500046 x_pred[1,20]
   + 0.1251423209905624 x_pred[1,21] - 0.0425179116427898 x_pred[1,22]
   + 0.0112718576565385 x_pred[1,23] - 0.1055028289556503 x_pred[1,24]
   - 0.0593996085226536 x_pred[1,25] - 0.1510967016220093 x_pred[1,26]
   + 0.0732243359088898 x_pred[1,27] - 0.1624173820018768 x_pred[1,28]
   + 0.0835582166910172 x_pred[1,29] - 0.0217034406960011 x_pred[1,30]
   - 0.0270129945129156 x_pred[1,31] + 0.0791155695915222 x_pred[1,32]
   + 0.0651856511831284 x_pred[1,33] + 0.0669807121157646 x_pred[1,34]
   - 0.0803126320242882 x_pred[1,35] + 0.0799528136849403 x_pred[1,36]
   + sequential0.linear_0.act[0,100] = -0.0284661389887333
 sequential0.linear_0.R336: 0.0727008283138275 x_pred[1,0]
   + 0.1355469971895218 x_pred[1,1] - 0.00566326640546322 x_pred[1,2]
   + 0.0738420337438583 x_pred[1,3] + 0.1753669232130051 x_pred[1,4]
   - 0.0867113769054413 x_pred[1,5] - 0.0792681723833084 x_pred[1,6]
   - 0.0512232892215252 x_pred[1,7] + 0.0969337895512581 x_pred[1,8]
   - 0.2087411880493164 x_pred[1,9] - 0.0826473757624626 x_pred[1,10]
   - 0.00613846909254789 x_pred[1,11] - 0.0484010651707649 x_pred[1,12]
   - 0.0998772829771042 x_pred[1,13] - 0.1770014315843582 x_pred[1,14]
   + 0.1120956763625145 x_pred[1,15] - 0.1255457550287247 x_pred[1,16]
   + 0.0830039009451866 x_pred[1,17] + 0.1488551795482635 x_pred[1,18]
   - 0.0360691137611866 x_pred[1,19] - 0.0994154512882233 x_pred[1,20]
   + 0.0140837747603655 x_pred[1,21] - 0.0291969180107117 x_pred[1,22]
   + 0.1402936577796936 x_pred[1,23] + 0.0107587585225701 x_pred[1,24]
   - 0.0253035146743059 x_pred[1,25] - 0.1819328516721725 x_pred[1,26]
   - 0.047265537083149 x_pred[1,27] + 0.0440461374819279 x_pred[1,28]
   + 0.1339093297719955 x_pred[1,29] - 0.144837886095047 x_pred[1,30]
   - 0.0359230637550354 x_pred[1,31] - 0.1688724160194397 x_pred[1,32]
   + 0.1541942209005356 x_pred[1,33] - 0.1093490198254585 x_pred[1,34]
   - 0.0765818208456039 x_pred[1,35] - 0.00809731334447861 x_pred[1,36]
   + sequential0.linear_0.act[0,101] = -0.2286473661661148
 sequential0.linear_0.R337: 0.0814516395330429 x_pred[1,0]
   + 0.0657110810279846 x_pred[1,1] + 0.0811870843172073 x_pred[1,2]
   + 0.00640369206666946 x_pred[1,3] + 0.122453399002552 x_pred[1,4]
   + 0.0848980769515038 x_pred[1,5] + 0.0593281686306 x_pred[1,6]
   + 0.0692475438117981 x_pred[1,7] - 0.0818475112318993 x_pred[1,8]
   + 0.189894437789917 x_pred[1,9] - 0.0953492745757103 x_pred[1,10]
   + 0.146858736872673 x_pred[1,11] + 0.0989002585411072 x_pred[1,12]
   - 0.00903201941400766 x_pred[1,13] - 0.1462309211492538 x_pred[1,14]
   - 0.00397465378046036 x_pred[1,15] + 0.1673925966024399 x_pred[1,16]
   + 0.0517898686230183 x_pred[1,17] + 0.098477266728878 x_pred[1,18]
   - 0.0829450041055679 x_pred[1,19] - 0.155630961060524 x_pred[1,20]
   + 0.079384945333004 x_pred[1,21] - 0.0948294848203659 x_pred[1,22]
   + 0.0864806696772575 x_pred[1,23] + 0.1940595358610153 x_pred[1,24]
   - 0.2058566361665726 x_pred[1,25] + 0.1276999115943909 x_pred[1,26]
   - 0.1461570411920547 x_pred[1,27] + 0.114367887377739 x_pred[1,28]
   + 0.0341533422470093 x_pred[1,29] - 0.2281389832496643 x_pred[1,30]
   + 0.1888051182031631 x_pred[1,31] + 0.015181758441031 x_pred[1,32]
   + 0.1347320526838303 x_pred[1,33] + 0.0560600496828556 x_pred[1,34]
   - 0.0080914031714201 x_pred[1,35] + 0.1807991415262222 x_pred[1,36]
   + sequential0.linear_0.act[0,102] = -0.0707369074225426
 sequential0.linear_0.R338: - 0.071509949862957 x_pred[1,0]
   + 0.1046642363071442 x_pred[1,1] - 0.0905766636133194 x_pred[1,2]
   - 0.0696972757577896 x_pred[1,3] + 0.0521074309945107 x_pred[1,4]
   - 0.016526872292161 x_pred[1,5] - 0.1868836879730225 x_pred[1,6]
   + 0.0134843718260527 x_pred[1,7] + 0.0841836631298065 x_pred[1,8]
   - 0.0479132160544395 x_pred[1,9] + 0.0964553877711296 x_pred[1,10]
   + 0.1463917195796967 x_pred[1,11] - 0.1048907488584518 x_pred[1,12]
   + 0.0869565978646278 x_pred[1,13] - 0.0131640015169978 x_pred[1,14]
   + 0.1874805092811584 x_pred[1,15] - 0.151121586561203 x_pred[1,16]
   - 0.1021629124879837 x_pred[1,17] + 0.0831858217716217 x_pred[1,18]
   - 0.093215100467205 x_pred[1,19] + 0.0364046134054661 x_pred[1,20]
   - 0.0314828790724277 x_pred[1,21] - 0.0145883215591311 x_pred[1,22]
   + 0.0195837169885635 x_pred[1,23] - 0.0677471980452538 x_pred[1,24]
   - 0.0847251191735268 x_pred[1,25] - 0.0072410237044096 x_pred[1,26]
   + 0.0543998442590237 x_pred[1,27] + 0.0025341126602143 x_pred[1,28]
   - 0.2306625545024872 x_pred[1,29] + 0.0596618317067623 x_pred[1,30]
   + 0.1559165865182877 x_pred[1,31] + 0.1139213591814041 x_pred[1,32]
   + 0.0750625729560852 x_pred[1,33] + 0.0506921336054802 x_pred[1,34]
   + 0.0364481098949909 x_pred[1,35] + 0.00800440926104784 x_pred[1,36]
   + sequential0.linear_0.act[0,103] = -0.1996243298053741
 sequential0.linear_0.R339: 0.0426780246198177 x_pred[1,0]
   + 0.0633790343999863 x_pred[1,1] + 0.2700565457344055 x_pred[1,2]
   - 0.1144105717539787 x_pred[1,3] + 0.1729331463575363 x_pred[1,4]
   - 0.026825925335288 x_pred[1,5] - 0.1167465597391129 x_pred[1,6]
   - 0.19758141040802 x_pred[1,7] - 0.1279827207326889 x_pred[1,8]
   - 0.0364579372107983 x_pred[1,9] - 0.077252596616745 x_pred[1,10]
   + 0.1195845752954483 x_pred[1,11] - 0.0631006360054016 x_pred[1,12]
   - 0.0955189317464828 x_pred[1,13] - 0.1282896250486374 x_pred[1,14]
   - 0.1246978268027306 x_pred[1,15] - 0.0804240182042122 x_pred[1,16]
   - 0.0789371281862259 x_pred[1,17] + 0.0400108844041824 x_pred[1,18]
   - 0.1001396402716637 x_pred[1,19] + 0.0801467671990395 x_pred[1,20]
   - 0.1230482012033463 x_pred[1,21] + 0.031927578151226 x_pred[1,22]
   + 0.0650953054428101 x_pred[1,23] - 0.0045309248380363 x_pred[1,24]
   + 0.0288258641958237 x_pred[1,25] - 0.2372050583362579 x_pred[1,26]
   - 0.1063720509409904 x_pred[1,27] - 0.0381259545683861 x_pred[1,28]
   - 0.0366254262626171 x_pred[1,29] - 0.1120160147547722 x_pred[1,30]
   - 0.0598170235753059 x_pred[1,31] - 0.0801357328891754 x_pred[1,32]
   - 0.0338148586452007 x_pred[1,33] - 0.0179148353636265 x_pred[1,34]
   + 0.00998986978083849 x_pred[1,35] - 0.0488471239805222 x_pred[1,36]
   + sequential0.linear_0.act[0,104] = 0.1375403106212616
 sequential0.linear_0.R340: - 0.0608948692679405 x_pred[1,0]
   + 0.1561294794082642 x_pred[1,1] + 0.094957560300827 x_pred[1,2]
   - 0.5689753293991089 x_pred[1,3] - 0.6011480093002319 x_pred[1,4]
   - 0.0414250753819942 x_pred[1,5] - 0.0446515530347824 x_pred[1,6]
   - 0.0297428537160158 x_pred[1,7] - 0.0357804298400879 x_pred[1,8]
   + 0.0543070733547211 x_pred[1,9] - 0.0695814937353134 x_pred[1,10]
   - 0.0824267417192459 x_pred[1,11] - 0.0893520414829254 x_pred[1,12]
   + 0.1454807221889496 x_pred[1,13] - 0.083714447915554 x_pred[1,14]
   + 0.1714698076248169 x_pred[1,15] + 0.0289401169866323 x_pred[1,16]
   + 0.1239428743720055 x_pred[1,17] + 0.0469506867229939 x_pred[1,18]
   + 0.1141037344932556 x_pred[1,19] - 0.1052724719047546 x_pred[1,20]
   - 0.1294410526752472 x_pred[1,21] - 0.1115362644195557 x_pred[1,22]
   + 0.1532651484012604 x_pred[1,23] + 0.0989535078406334 x_pred[1,24]
   - 0.0128433918580413 x_pred[1,25] - 0.1844621151685715 x_pred[1,26]
   - 0.1373361051082611 x_pred[1,27] + 0.0893179848790169 x_pred[1,28]
   + 0.1646291017532349 x_pred[1,29] + 0.00273721432313323 x_pred[1,30]
   + 0.1137400195002556 x_pred[1,31] + 0.0529122017323971 x_pred[1,32]
   + 0.050516240298748 x_pred[1,33] - 0.1208417639136314 x_pred[1,34]
   - 0.1366590410470963 x_pred[1,35] + 0.042899239808321 x_pred[1,36]
   + sequential0.linear_0.act[0,105] = -0.0732541680335999
 sequential0.linear_0.R341: 0.1011986285448074 x_pred[1,0]
   - 0.1113669127225876 x_pred[1,1] + 0.283714085817337 x_pred[1,2]
   + 0.6149985790252686 x_pred[1,3] + 0.3531862497329712 x_pred[1,4]
   + 0.1204905062913895 x_pred[1,5] + 0.1286121606826782 x_pred[1,6]
   + 0.072568841278553 x_pred[1,7] + 0.1245954185724258 x_pred[1,8]
   + 0.1864882558584213 x_pred[1,9] - 0.0229133497923613 x_pred[1,10]
   - 0.0142609030008316 x_pred[1,11] - 0.0611140914261341 x_pred[1,12]
   - 0.0139931673184037 x_pred[1,13] + 0.0846682116389275 x_pred[1,14]
   + 0.063601054251194 x_pred[1,15] + 0.2512810230255127 x_pred[1,16]
   - 0.1185256168246269 x_pred[1,17] + 0.1512083262205124 x_pred[1,18]
   + 0.0611701719462872 x_pred[1,19] - 0.024076284840703 x_pred[1,20]
   + 0.0771417692303658 x_pred[1,21] + 0.112090528011322 x_pred[1,22]
   + 0.1278086006641388 x_pred[1,23] + 0.0126173105090857 x_pred[1,24]
   - 0.1102734506130219 x_pred[1,25] - 0.0674508735537529 x_pred[1,26]
   + 0.0962357595562935 x_pred[1,27] - 0.1090183556079865 x_pred[1,28]
   + 0.00506023084744811 x_pred[1,29] - 0.0677546858787537 x_pred[1,30]
   + 0.0220229960978031 x_pred[1,31] + 0.1204749867320061 x_pred[1,32]
   - 0.0422024503350258 x_pred[1,33] + 0.0775547921657562 x_pred[1,34]
   - 0.0842611715197563 x_pred[1,35] + 0.0662355273962021 x_pred[1,36]
   + sequential0.linear_0.act[0,106] = 0.2336482256650925
 sequential0.linear_0.R342: 0.1240678653120995 x_pred[1,0]
   - 0.0313186794519424 x_pred[1,1] - 0.0251664202660322 x_pred[1,2]
   + 0.1759559810161591 x_pred[1,3] - 0.0516012124717236 x_pred[1,4]
   - 0.143330916762352 x_pred[1,5] + 0.1000527441501617 x_pred[1,6]
   + 0.0209815483540297 x_pred[1,7] + 0.0122853880748153 x_pred[1,8]
   + 0.108967088162899 x_pred[1,9] + 0.0627241134643555 x_pred[1,10]
   + 0.2804811000823975 x_pred[1,11] + 0.0157667249441147 x_pred[1,12]
   + 0.0939456298947334 x_pred[1,13] - 0.1014651134610176 x_pred[1,14]
   + 0.1015321239829063 x_pred[1,15] - 0.1273120194673538 x_pred[1,16]
   + 0.1784622222185135 x_pred[1,17] + 0.0380684994161129 x_pred[1,18]
   + 0.1554135233163834 x_pred[1,19] - 0.3340347409248352 x_pred[1,20]
   - 0.00944328308105469 x_pred[1,21] - 0.053098414093256 x_pred[1,22]
   - 0.1819646507501602 x_pred[1,23] + 0.0245212540030479 x_pred[1,24]
   - 0.0723024904727936 x_pred[1,25] - 0.1958615183830261 x_pred[1,26]
   - 0.0635310485959053 x_pred[1,27] + 0.1381392329931259 x_pred[1,28]
   - 0.071300745010376 x_pred[1,29] + 0.1723554283380508 x_pred[1,30]
   + 0.1419893354177475 x_pred[1,31] + 0.1013675481081009 x_pred[1,32]
   + 0.094972737133503 x_pred[1,33] - 0.1778990179300308 x_pred[1,34]
   - 0.0105299074202776 x_pred[1,35] + 0.0287305191159248 x_pred[1,36]
   + sequential0.linear_0.act[0,107] = -0.1289515495300293
 sequential0.linear_0.R343: 0.0139603354036808 x_pred[1,0]
   - 0.176269143819809 x_pred[1,1] + 0.4667505323886871 x_pred[1,2]
   - 0.2632046341896057 x_pred[1,3] + 0.0214540101587772 x_pred[1,4]
   + 0.0857092291116714 x_pred[1,5] - 0.00492620840668678 x_pred[1,6]
   + 0.0898250713944435 x_pred[1,7] - 0.0999678894877434 x_pred[1,8]
   + 0.0502040982246399 x_pred[1,9] - 0.0741747841238976 x_pred[1,10]
   - 0.0457372516393661 x_pred[1,11] + 0.1606186181306839 x_pred[1,12]
   - 0.1938636898994446 x_pred[1,13] - 0.047388032078743 x_pred[1,14]
   - 0.0839817821979523 x_pred[1,15] + 0.0664989873766899 x_pred[1,16]
   + 0.0814947336912155 x_pred[1,17] + 0.0481646209955215 x_pred[1,18]
   - 0.0445334911346436 x_pred[1,19] + 0.00349672534503043 x_pred[1,20]
   - 0.1533899307250977 x_pred[1,21] - 0.0171311125159264 x_pred[1,22]
   - 0.0765806958079338 x_pred[1,23] - 0.1631058752536774 x_pred[1,24]
   + 0.0895588397979736 x_pred[1,25] - 0.0227392520755529 x_pred[1,26]
   - 0.0549045577645302 x_pred[1,27] - 0.0370271094143391 x_pred[1,28]
   - 0.0499199591577053 x_pred[1,29] - 0.0938116833567619 x_pred[1,30]
   + 0.0588985532522202 x_pred[1,31] - 0.0188492499291897 x_pred[1,32]
   + 0.1071175932884216 x_pred[1,33] - 0.0115687260404229 x_pred[1,34]
   + 0.0680313929915428 x_pred[1,35] - 0.1851954907178879 x_pred[1,36]
   + sequential0.linear_0.act[0,108] = 0.3495936989784241
 sequential0.linear_0.R344: - 0.0297569278627634 x_pred[1,0]
   + 0.1655116230249405 x_pred[1,1] + 0.1582015305757523 x_pred[1,2]
   + 0.064291775226593 x_pred[1,3] + 0.1397415548563004 x_pred[1,4]
   + 0.0195309855043888 x_pred[1,5] + 0.1153970286250114 x_pred[1,6]
   + 0.071453258395195 x_pred[1,7] - 0.0539903901517391 x_pred[1,8]
   - 0.0351856201887131 x_pred[1,9] - 0.097238577902317 x_pred[1,10]
   - 0.0874453857541084 x_pred[1,11] + 0.139437198638916 x_pred[1,12]
   + 0.0115181067958474 x_pred[1,13] - 0.1020773500204086 x_pred[1,14]
   + 0.0476637184619904 x_pred[1,15] - 0.0677374005317688 x_pred[1,16]
   + 0.0836861282587051 x_pred[1,17] - 0.029389463365078 x_pred[1,18]
   - 0.1579675823450089 x_pred[1,19] + 0.1385831981897354 x_pred[1,20]
   + 0.1843231618404388 x_pred[1,21] + 0.179232269525528 x_pred[1,22]
   + 0.1975151896476746 x_pred[1,23] - 0.036821324378252 x_pred[1,24]
   - 0.104329340159893 x_pred[1,25] - 0.00703076831996441 x_pred[1,26]
   - 0.0438586659729481 x_pred[1,27] + 0.1943972855806351 x_pred[1,28]
   - 0.0746174156665802 x_pred[1,29] + 0.2471054047346115 x_pred[1,30]
   + 0.0384552553296089 x_pred[1,31] - 0.00198725308291614 x_pred[1,32]
   + 0.0606805235147476 x_pred[1,33] - 0.0538822002708912 x_pred[1,34]
   - 0.00632426515221596 x_pred[1,35] + 0.0826559290289879 x_pred[1,36]
   + sequential0.linear_0.act[0,109] = -0.1958027780056
 sequential0.linear_0.R345: - 0.0381343550980091 x_pred[1,0]
   + 0.1341978311538696 x_pred[1,1] + 0.0166941285133362 x_pred[1,2]
   - 0.06088812276721 x_pred[1,3] + 0.1068481355905533 x_pred[1,4]
   - 0.125904843211174 x_pred[1,5] - 0.1759762614965439 x_pred[1,6]
   + 0.0633208528161049 x_pred[1,7] + 0.2192586958408356 x_pred[1,8]
   + 0.0733558237552643 x_pred[1,9] + 0.0295750964432955 x_pred[1,10]
   + 0.1764094531536102 x_pred[1,11] - 0.0213603097945452 x_pred[1,12]
   - 0.0816118121147156 x_pred[1,13] - 0.0898613855242729 x_pred[1,14]
   - 0.0219772402197123 x_pred[1,15] - 0.2112189382314682 x_pred[1,16]
   - 0.0943808481097221 x_pred[1,17] - 0.0695974081754684 x_pred[1,18]
   - 0.0374184660613537 x_pred[1,19] - 0.2033491432666779 x_pred[1,20]
   - 0.0872167572379112 x_pred[1,21] + 0.0863639116287231 x_pred[1,22]
   + 0.0609475672245026 x_pred[1,23] + 0.2307747453451157 x_pred[1,24]
   - 0.1472787857055664 x_pred[1,25] - 0.078976109623909 x_pred[1,26]
   + 0.0597147569060326 x_pred[1,27] - 0.0557980574667454 x_pred[1,28]
   - 0.00315770134329796 x_pred[1,29] + 0.0393967181444168 x_pred[1,30]
   + 0.0344723239541054 x_pred[1,31] + 0.0313918106257915 x_pred[1,32]
   + 0.0124210929498076 x_pred[1,33] + 0.1183184236288071 x_pred[1,34]
   + 0.1331778168678284 x_pred[1,35] + 0.0657806918025017 x_pred[1,36]
   + sequential0.linear_0.act[0,110] = -0.166332945227623
 sequential0.linear_0.R346: - 0.0111790662631392 x_pred[1,0]
   + 0.00558298593387008 x_pred[1,1] + 0.0326633863151073 x_pred[1,2]
   + 0.2184154838323593 x_pred[1,3] + 0.093760758638382 x_pred[1,4]
   + 0.0489832274615765 x_pred[1,5] + 0.1636762320995331 x_pred[1,6]
   + 0.1441166549921036 x_pred[1,7] - 0.0999061539769173 x_pred[1,8]
   - 0.1027520969510078 x_pred[1,9] + 0.1377050131559372 x_pred[1,10]
   + 0.092026062309742 x_pred[1,11] + 0.0501534044742584 x_pred[1,12]
   - 0.0361815989017487 x_pred[1,13] - 0.1693021357059479 x_pred[1,14]
   + 0.0194060448557138 x_pred[1,15] - 0.0675210505723953 x_pred[1,16]
   + 0.1080867797136307 x_pred[1,17] + 0.0495506525039673 x_pred[1,18]
   + 0.0705833062529564 x_pred[1,19] + 0.0695795714855194 x_pred[1,20]
   + 0.0543671436607838 x_pred[1,21] + 0.1537945419549942 x_pred[1,22]
   + 0.0187410973012447 x_pred[1,23] - 0.1307922601699829 x_pred[1,24]
   - 0.0892735421657562 x_pred[1,25] - 0.2545905411243439 x_pred[1,26]
   + 0.169930025935173 x_pred[1,27] - 0.0225028935819864 x_pred[1,28]
   - 0.0174707565456629 x_pred[1,29] - 0.0184440445154905 x_pred[1,30]
   + 0.1340813338756561 x_pred[1,31] - 0.0137003045529127 x_pred[1,32]
   - 0.1207946613430977 x_pred[1,33] + 0.0598661564290524 x_pred[1,34]
   + 0.2026682049036026 x_pred[1,35] + 0.015214117243886 x_pred[1,36]
   + sequential0.linear_0.act[0,111] = -0.0846023857593536
 sequential0.linear_0.R347: 0.1265427619218826 x_pred[1,0]
   + 0.0451010055840015 x_pred[1,1] + 0.1652881652116776 x_pred[1,2]
   + 0.0936853587627411 x_pred[1,3] + 0.2712549865245819 x_pred[1,4]
   - 0.1250021010637283 x_pred[1,5] + 0.0379309318959713 x_pred[1,6]
   + 0.1825343072414398 x_pred[1,7] + 0.1009686812758446 x_pred[1,8]
   - 0.00314683886244893 x_pred[1,9] - 0.0186082739382982 x_pred[1,10]
   - 0.0652648136019707 x_pred[1,11] + 0.2846344709396362 x_pred[1,12]
   - 0.056886799633503 x_pred[1,13] - 0.19370436668396 x_pred[1,14]
   + 0.0291577484458685 x_pred[1,15] - 0.0519363954663277 x_pred[1,16]
   + 0.0782389417290688 x_pred[1,17] + 0.00286417361348867 x_pred[1,18]
   + 0.1524381637573242 x_pred[1,19] + 0.1736521422863007 x_pred[1,20]
   - 0.0822922214865685 x_pred[1,21] - 0.1504737287759781 x_pred[1,22]
   + 0.1016664057970047 x_pred[1,23] - 0.0478325933218002 x_pred[1,24]
   + 0.1071940362453461 x_pred[1,25] + 0.1279739141464233 x_pred[1,26]
   - 0.0505958236753941 x_pred[1,27] - 0.0489568598568439 x_pred[1,28]
   - 0.0345599688589573 x_pred[1,29] - 0.0154911996796727 x_pred[1,30]
   + 0.125400111079216 x_pred[1,31] - 0.1349254548549652 x_pred[1,32]
   + 0.0537656806409359 x_pred[1,33] + 0.0191936194896698 x_pred[1,34]
   + 0.1854849755764008 x_pred[1,35] - 0.0968711599707603 x_pred[1,36]
   + sequential0.linear_0.act[0,112] = -0.1220287159085274
 sequential0.linear_0.R348: 0.1523146331310272 x_pred[1,0]
   + 0.1249228343367577 x_pred[1,1] + 0.2159639298915863 x_pred[1,2]
   - 0.3867968916893005 x_pred[1,3] - 0.2257877588272095 x_pred[1,4]
   - 0.1235836669802666 x_pred[1,5] + 0.0854418948292732 x_pred[1,6]
   + 0.0743202269077301 x_pred[1,7] + 0.0134973842650652 x_pred[1,8]
   + 0.1675011962652206 x_pred[1,9] + 0.123394101858139 x_pred[1,10]
   - 0.0812553688883781 x_pred[1,11] + 0.0794425532221794 x_pred[1,12]
   + 0.0393094606697559 x_pred[1,13] + 0.1098132580518723 x_pred[1,14]
   + 0.0176483821123838 x_pred[1,15] + 0.0110370591282845 x_pred[1,16]
   + 0.0720721632242203 x_pred[1,17] + 0.0492091104388237 x_pred[1,18]
   + 0.0789436027407646 x_pred[1,19] + 0.1231495290994644 x_pred[1,20]
   - 0.1179788485169411 x_pred[1,21] + 0.1180759072303772 x_pred[1,22]
   + 0.0188876129686832 x_pred[1,23] + 0.092410184442997 x_pred[1,24]
   - 0.0930696651339531 x_pred[1,25] + 0.2173978835344315 x_pred[1,26]
   - 0.0454133898019791 x_pred[1,27] + 0.1209883764386177 x_pred[1,28]
   + 0.1197070106863976 x_pred[1,29] - 0.100555419921875 x_pred[1,30]
   - 0.0499422512948513 x_pred[1,31] + 0.0526740550994873 x_pred[1,32]
   + 0.058264784514904 x_pred[1,33] + 0.0569505989551544 x_pred[1,34]
   + 0.0195111781358719 x_pred[1,35] - 0.1415912210941315 x_pred[1,36]
   + sequential0.linear_0.act[0,113] = 0.0132131138816476
 sequential0.linear_0.R349: 0.0788249224424362 x_pred[1,0]
   + 0.1946491301059723 x_pred[1,1] + 0.2314427644014359 x_pred[1,2]
   + 1.158511281013489 x_pred[1,3] + 0.4963743984699249 x_pred[1,4]
   + 0.021500326693058 x_pred[1,5] + 0.1571194976568222 x_pred[1,6]
   + 0.0818290859460831 x_pred[1,7] - 0.0704598501324654 x_pred[1,8]
   - 0.0778703913092613 x_pred[1,9] + 0.0645883902907372 x_pred[1,10]
   - 0.00663258088752627 x_pred[1,11] - 0.00876521877944469 x_pred[1,12]
   - 0.0040306793525815 x_pred[1,13] - 0.009184954687953 x_pred[1,14]
   + 0.0348601415753365 x_pred[1,15] + 0.047684658318758 x_pred[1,16]
   - 0.1283710300922394 x_pred[1,17] - 0.095347173511982 x_pred[1,18]
   - 0.1563849598169327 x_pred[1,19] + 0.0714156404137611 x_pred[1,20]
   - 0.0790411084890366 x_pred[1,21] + 0.1885200291872025 x_pred[1,22]
   + 0.196874275803566 x_pred[1,23] - 4.6082862536422908e-04 x_pred[1,24]
   - 0.0610045082867146 x_pred[1,25] - 0.0985197350382805 x_pred[1,26]
   + 0.0332078188657761 x_pred[1,27] + 0.0150174237787724 x_pred[1,28]
   + 0.00650716572999954 x_pred[1,29] - 0.1883760988712311 x_pred[1,30]
   + 0.0997146368026733 x_pred[1,31] + 0.1284220963716507 x_pred[1,32]
   + 0.00351971900090575 x_pred[1,33] - 0.0336558856070042 x_pred[1,34]
   + 0.0909533277153969 x_pred[1,35] - 0.033948864787817 x_pred[1,36]
   + sequential0.linear_0.act[0,114] = 0.1607993841171265
 sequential0.linear_0.R350: 0.0667553916573524 x_pred[1,0]
   + 0.0159631092101336 x_pred[1,1] + 0.0432761684060097 x_pred[1,2]
   + 0.0451967529952526 x_pred[1,3] + 0.2089857310056686 x_pred[1,4]
   + 0.0426588729023933 x_pred[1,5] - 0.0672137811779976 x_pred[1,6]
   + 0.1566599458456039 x_pred[1,7] + 0.0107242614030838 x_pred[1,8]
   - 0.1217994913458824 x_pred[1,9] + 0.1762645095586777 x_pred[1,10]
   + 0.0732364431023598 x_pred[1,11] + 0.1122109293937683 x_pred[1,12]
   + 0.1848417967557907 x_pred[1,13] + 0.0329779610037804 x_pred[1,14]
   + 0.0818702951073647 x_pred[1,15] - 0.0583071373403072 x_pred[1,16]
   + 0.0215537995100021 x_pred[1,17] + 0.0717050582170486 x_pred[1,18]
   - 0.0121693452820182 x_pred[1,19] - 0.0390620976686478 x_pred[1,20]
   - 0.0758278146386147 x_pred[1,21] - 0.0168759059160948 x_pred[1,22]
   - 0.1073086559772491 x_pred[1,23] - 0.013541541993618 x_pred[1,24]
   - 0.1404218226671219 x_pred[1,25] + 0.0112689984962344 x_pred[1,26]
   - 0.0456525757908821 x_pred[1,27] + 0.106585331261158 x_pred[1,28]
   + 0.0190240517258644 x_pred[1,29] - 0.0738632678985596 x_pred[1,30]
   + 0.2336601614952087 x_pred[1,31] - 0.1388786882162094 x_pred[1,32]
   + 0.11744774132967 x_pred[1,33] + 0.138056144118309 x_pred[1,34]
   - 0.0629197359085083 x_pred[1,35] - 0.0663631558418274 x_pred[1,36]
   + sequential0.linear_0.act[0,115] = -0.0747007802128792
 sequential0.linear_0.R351: - 0.0427126698195934 x_pred[1,0]
   - 0.0910803601145744 x_pred[1,1] + 0.0429654344916344 x_pred[1,2]
   + 0.2985460460186005 x_pred[1,3] + 0.1034576073288918 x_pred[1,4]
   + 0.1091536357998848 x_pred[1,5] + 0.00658000074326992 x_pred[1,6]
   + 0.1113017052412033 x_pred[1,7] + 0.0201731584966183 x_pred[1,8]
   - 0.00406127749010921 x_pred[1,9] + 0.0851679667830467 x_pred[1,10]
   - 0.1045100316405296 x_pred[1,11] + 0.0921132862567902 x_pred[1,12]
   + 0.03101796656847 x_pred[1,13] + 0.0675535202026367 x_pred[1,14]
   + 0.0869652181863785 x_pred[1,15] - 0.0668367743492126 x_pred[1,16]
   - 0.1282047927379608 x_pred[1,17] + 0.00828300975263119 x_pred[1,18]
   - 0.0746396332979202 x_pred[1,19] - 0.1170978546142578 x_pred[1,20]
   + 0.1774870753288269 x_pred[1,21] + 0.0599042773246765 x_pred[1,22]
   + 0.0792612880468369 x_pred[1,23] + 0.1539619565010071 x_pred[1,24]
   - 0.1123636439442635 x_pred[1,25] - 0.1391487121582031 x_pred[1,26]
   + 0.0645178034901619 x_pred[1,27] - 0.0947117283940315 x_pred[1,28]
   + 0.1734792441129684 x_pred[1,29] - 0.0386174023151398 x_pred[1,30]
   + 0.1124371513724327 x_pred[1,31] - 0.1145656332373619 x_pred[1,32]
   + 0.0415360294282436 x_pred[1,33] + 0.0839690193533897 x_pred[1,34]
   + 0.00622019404545426 x_pred[1,35] - 0.1099326387047768 x_pred[1,36]
   + sequential0.linear_0.act[0,116] = -0.1498827338218689
 sequential0.linear_0.R352: 0.1298364549875259 x_pred[1,0]
   + 0.0983613803982735 x_pred[1,1] - 0.04039191827178 x_pred[1,2]
   + 0.1316827237606049 x_pred[1,3] + 0.2121168226003647 x_pred[1,4]
   - 0.1556950658559799 x_pred[1,5] + 0.0995574295520782 x_pred[1,6]
   - 0.0610139593482018 x_pred[1,7] - 0.0907377600669861 x_pred[1,8]
   + 0.0997785776853561 x_pred[1,9] - 0.000836396 x_pred[1,10]
   - 0.00797949824482203 x_pred[1,11] + 0.0959572270512581 x_pred[1,12]
   - 0.0804410204291344 x_pred[1,13] + 0.0336478278040886 x_pred[1,14]
   - 0.0475758947432041 x_pred[1,15] + 0.049945455044508 x_pred[1,16]
   + 0.1605461537837982 x_pred[1,17] - 0.0430327691137791 x_pred[1,18]
   - 0.0339853651821613 x_pred[1,19] - 0.054121408611536 x_pred[1,20]
   - 0.1080366745591164 x_pred[1,21] - 0.0294808316975832 x_pred[1,22]
   - 0.0935099199414253 x_pred[1,23] + 0.1497438848018646 x_pred[1,24]
   + 0.0756209120154381 x_pred[1,25] + 0.1221589148044586 x_pred[1,26]
   + 0.0964083299040794 x_pred[1,27] - 0.1040370315313339 x_pred[1,28]
   + 0.1458090543746948 x_pred[1,29] + 0.0564002096652985 x_pred[1,30]
   + 0.1240642666816711 x_pred[1,31] + 0.0892984643578529 x_pred[1,32]
   - 0.0400020740926266 x_pred[1,33] + 0.0900249034166336 x_pred[1,34]
   + 0.00919406022876501 x_pred[1,35] - 0.1136880442500114 x_pred[1,36]
   + sequential0.linear_0.act[0,117] = -0.0635721758008003
 sequential0.linear_0.R353: - 0.0305687580257654 x_pred[1,0]
   + 0.0173577424138784 x_pred[1,1] + 0.0942985564470291 x_pred[1,2]
   + 0.0233361124992371 x_pred[1,3] - 0.1562666147947311 x_pred[1,4]
   - 0.0789352431893349 x_pred[1,5] - 0.1348924189805984 x_pred[1,6]
   - 0.0579546391963959 x_pred[1,7] - 0.1067819520831108 x_pred[1,8]
   + 0.0643816813826561 x_pred[1,9] - 0.0313419662415981 x_pred[1,10]
   - 0.0699309036135674 x_pred[1,11] - 0.1461687684059143 x_pred[1,12]
   + 0.0914157405495644 x_pred[1,13] + 0.0578975267708302 x_pred[1,14]
   + 0.0159406438469887 x_pred[1,15] + 0.1037850901484489 x_pred[1,16]
   - 0.051178939640522 x_pred[1,17] + 0.0452053062617779 x_pred[1,18]
   + 0.1537329852581024 x_pred[1,19] - 0.1563735604286194 x_pred[1,20]
   - 0.1534042507410049 x_pred[1,21] - 0.1344859600067139 x_pred[1,22]
   - 0.0173770729452372 x_pred[1,23] + 0.0213573053479195 x_pred[1,24]
   - 0.1343099921941757 x_pred[1,25] + 0.1649649143218994 x_pred[1,26]
   + 0.1142696514725685 x_pred[1,27] - 0.0638554841279984 x_pred[1,28]
   - 0.1020954549312592 x_pred[1,29] - 0.1722409278154373 x_pred[1,30]
   + 0.1404642015695572 x_pred[1,31] + 0.00505330786108971 x_pred[1,32]
   - 0.0708604827523232 x_pred[1,33] - 0.0817146077752113 x_pred[1,34]
   - 0.102208286523819 x_pred[1,35] - 0.1003004387021065 x_pred[1,36]
   + sequential0.linear_0.act[0,118] = -0.1957201510667801
 sequential0.linear_0.R354: 0.1753175258636475 x_pred[1,0]
   + 0.0963976383209229 x_pred[1,1] - 0.053547564893961 x_pred[1,2]
   + 0.0109247183427215 x_pred[1,3] - 0.0420618429780006 x_pred[1,4]
   + 0.181697890162468 x_pred[1,5] + 0.0204939804971218 x_pred[1,6]
   - 0.00894742365926504 x_pred[1,7] - 0.0902910009026527 x_pred[1,8]
   - 0.1329964846372604 x_pred[1,9] - 0.0924141258001328 x_pred[1,10]
   + 0.0973745211958885 x_pred[1,11] + 0.0580183900892735 x_pred[1,12]
   + 0.1340873539447784 x_pred[1,13] - 0.0996914580464363 x_pred[1,14]
   + 0.0808324664831161 x_pred[1,15] + 0.0753772109746933 x_pred[1,16]
   - 0.1006848812103271 x_pred[1,17] - 0.1200995221734047 x_pred[1,18]
   - 0.1569189578294754 x_pred[1,19] - 0.1028115898370743 x_pred[1,20]
   - 0.0657068192958832 x_pred[1,21] + 3.92115e-06 x_pred[1,22]
   + 0.0652343928813934 x_pred[1,23] - 0.0544456504285336 x_pred[1,24]
   + 0.00877278577536345 x_pred[1,25] + 0.00210526119917631 x_pred[1,26]
   + 0.1216646805405617 x_pred[1,27] + 0.1619549691677094 x_pred[1,28]
   - 0.0841685235500336 x_pred[1,29] + 0.1062579154968262 x_pred[1,30]
   - 0.0993674620985985 x_pred[1,31] - 0.0264815632253885 x_pred[1,32]
   + 0.0848204866051674 x_pred[1,33] - 0.0776618048548698 x_pred[1,34]
   - 0.0679321736097336 x_pred[1,35] - 0.131840318441391 x_pred[1,36]
   + sequential0.linear_0.act[0,119] = -0.1630761623382568
 sequential0.linear_0.R355: 0.0253443773835897 x_pred[1,0]
   + 1.292545199394226 x_pred[1,1] + 0.3128944337368011 x_pred[1,2]
   - 3.054032802581787 x_pred[1,3] - 5.218802928924561 x_pred[1,4]
   + 5.5748765589669347e-04 x_pred[1,5] - 0.0106921028345823 x_pred[1,6]
   - 0.00148816395085305 x_pred[1,7] - 0.00268836366012692 x_pred[1,8]
   - 0.00439482042565942 x_pred[1,9] + 0.00801853090524673 x_pred[1,10]
   - 0.0141616621986032 x_pred[1,11] + 0.0249922052025795 x_pred[1,12]
   - 0.0398060344159603 x_pred[1,13] - 0.0148060657083988 x_pred[1,14]
   + 0.0030875033698976 x_pred[1,15] + 0.478165477514267 x_pred[1,16]
   - 0.00684013916179538 x_pred[1,17] - 0.00552813755348325 x_pred[1,18]
   + 0.0100364731624722 x_pred[1,19] - 0.0177207142114639 x_pred[1,20]
   - 0.0169119760394096 x_pred[1,21] - 0.0157848373055458 x_pred[1,22]
   - 0.00552529143169522 x_pred[1,23] + 0.0229534301906824 x_pred[1,24]
   + 0.014019331894815 x_pred[1,25] - 0.6997062563896179 x_pred[1,26]
   + 0.00436446676030755 x_pred[1,27] - 0.00294020096771419 x_pred[1,28]
   - 0.0300732739269733 x_pred[1,29] - 0.00575378723442554 x_pred[1,30]
   - 0.0227016545832157 x_pred[1,31] + 0.00564721925184131 x_pred[1,32]
   - 0.00738239800557494 x_pred[1,33] - 0.00621007196605206 x_pred[1,34]
   - 0.020909957587719 x_pred[1,35] - 0.0117989480495453 x_pred[1,36]
   + sequential0.linear_0.act[0,120] = -0.3967903256416321
 sequential0.linear_0.R356: 0.169046625494957 x_pred[1,0]
   - 0.0400490052998066 x_pred[1,1] + 0.1318372189998627 x_pred[1,2]
   + 1.304106831550598 x_pred[1,3] + 0.4203373491764069 x_pred[1,4]
   + 0.0447415336966515 x_pred[1,5] - 0.0167607944458723 x_pred[1,6]
   + 0.00105134269688278 x_pred[1,7] + 0.0253954976797104 x_pred[1,8]
   + 0.0591826662421227 x_pred[1,9] + 0.0432670935988426 x_pred[1,10]
   + 0.00435184501111507 x_pred[1,11] - 0.0293583460152149 x_pred[1,12]
   + 0.1762680411338806 x_pred[1,13] - 0.1009706854820251 x_pred[1,14]
   - 0.1297343969345093 x_pred[1,15] + 0.023694921284914 x_pred[1,16]
   + 0.1240881532430649 x_pred[1,17] - 0.0567077957093716 x_pred[1,18]
   + 0.0891636982560158 x_pred[1,19] - 0.0981819853186607 x_pred[1,20]
   + 0.0202050060033798 x_pred[1,21] - 0.0628528892993927 x_pred[1,22]
   - 0.0629619732499123 x_pred[1,23] - 0.1231178715825081 x_pred[1,24]
   - 0.0895237326622009 x_pred[1,25] + 0.2971788346767426 x_pred[1,26]
   + 0.1396675407886505 x_pred[1,27] + 0.1296598762273788 x_pred[1,28]
   + 0.130145400762558 x_pred[1,29] - 0.0397617667913437 x_pred[1,30]
   - 0.1597112715244293 x_pred[1,31] + 0.073623426258564 x_pred[1,32]
   - 0.00570205599069595 x_pred[1,33] - 0.0154606336727738 x_pred[1,34]
   + 0.1713974177837372 x_pred[1,35] - 0.1259936392307281 x_pred[1,36]
   + sequential0.linear_0.act[0,121] = -0.0262832306325436
 sequential0.linear_0.R357: - 0.1420156061649323 x_pred[1,0]
   + 0.1078633889555931 x_pred[1,1] - 0.0144166545942426 x_pred[1,2]
   + 0.2202298194169998 x_pred[1,3] + 0.1234972402453423 x_pred[1,4]
   - 0.0082667013630271 x_pred[1,5] - 0.1300047785043716 x_pred[1,6]
   + 0.1113270074129105 x_pred[1,7] - 0.0657446309924126 x_pred[1,8]
   - 0.206414207816124 x_pred[1,9] - 0.0578282251954079 x_pred[1,10]
   - 0.0430673286318779 x_pred[1,11] + 0.1117187961935997 x_pred[1,12]
   + 0.1170435324311256 x_pred[1,13] + 0.0891159996390343 x_pred[1,14]
   - 0.0342874191701412 x_pred[1,15] + 0.029015326872468 x_pred[1,16]
   + 0.0540742836892605 x_pred[1,17] - 0.00206021778285503 x_pred[1,18]
   + 0.1280330270528793 x_pred[1,19] - 0.0329761132597923 x_pred[1,20]
   + 0.0666394829750061 x_pred[1,21] + 0.1316526085138321 x_pred[1,22]
   + 0.0779671519994736 x_pred[1,23] - 0.0409490689635277 x_pred[1,24]
   - 0.1176940277218819 x_pred[1,25] - 0.143880307674408 x_pred[1,26]
   + 0.0457459650933743 x_pred[1,27] + 0.012266562320292 x_pred[1,28]
   + 0.0477136820554733 x_pred[1,29] + 0.0148154981434345 x_pred[1,30]
   + 0.1770266145467758 x_pred[1,31] + 0.00962722394615412 x_pred[1,32]
   + 0.0393992550671101 x_pred[1,33] + 0.0923430100083351 x_pred[1,34]
   + 0.1137263849377632 x_pred[1,35] - 0.2200494110584259 x_pred[1,36]
   + sequential0.linear_0.act[0,122] = -0.2252286523580551
 sequential0.linear_0.R358: - 0.00587498629465699 x_pred[1,0]
   + 0.0537420809268951 x_pred[1,1] - 0.0141748739406466 x_pred[1,2]
   + 0.1695010662078857 x_pred[1,3] + 0.0404447205364704 x_pred[1,4]
   + 0.0507112443447113 x_pred[1,5] - 0.1800078749656677 x_pred[1,6]
   + 0.214095875620842 x_pred[1,7] + 0.0513707175850868 x_pred[1,8]
   - 0.0093671390786767 x_pred[1,9] + 0.15378637611866 x_pred[1,10]
   + 0.00437622470781207 x_pred[1,11] - 0.1210324987769127 x_pred[1,12]
   + 0.0337353758513927 x_pred[1,13] - 0.0695144906640053 x_pred[1,14]
   + 0.166614443063736 x_pred[1,15] - 0.1664857864379883 x_pred[1,16]
   + 0.050453457981348 x_pred[1,17] - 0.1605075746774673 x_pred[1,18]
   - 0.0904513373970985 x_pred[1,19] - 0.00270949676632881 x_pred[1,20]
   - 0.1081895604729652 x_pred[1,21] + 0.2005486190319061 x_pred[1,22]
   - 0.1034954115748405 x_pred[1,23] - 0.0153240105137229 x_pred[1,24]
   - 0.0257032494992018 x_pred[1,25] - 0.0919968634843826 x_pred[1,26]
   - 0.069535955786705 x_pred[1,27] - 0.1120550706982613 x_pred[1,28]
   - 0.2623338997364044 x_pred[1,29] + 0.057616051286459 x_pred[1,30]
   + 0.0956681743264198 x_pred[1,31] - 0.108420729637146 x_pred[1,32]
   + 0.1442627012729645 x_pred[1,33] - 0.0898692160844803 x_pred[1,34]
   - 0.0111590037122369 x_pred[1,35] - 0.0174714736640453 x_pred[1,36]
   + sequential0.linear_0.act[0,123] = -0.0593931786715984
 sequential0.linear_0.R359: 0.3236084282398224 x_pred[1,0]
   + 0.3823884725570679 x_pred[1,1] + 0.3274888396263123 x_pred[1,2]
   + 0.1378514170646667 x_pred[1,3] + 0.2003041654825211 x_pred[1,4]
   + 0.0972963497042656 x_pred[1,5] - 0.0953467935323715 x_pred[1,6]
   + 0.1538981795310974 x_pred[1,7] + 0.1078013405203819 x_pred[1,8]
   + 0.0214454662054777 x_pred[1,9] + 0.0737496316432953 x_pred[1,10]
   - 0.0863551795482635 x_pred[1,11] + 0.0278411209583282 x_pred[1,12]
   + 0.0732463598251343 x_pred[1,13] - 0.0658823251724243 x_pred[1,14]
   + 0.0608974918723106 x_pred[1,15] - 0.2675532102584839 x_pred[1,16]
   - 0.1140841692686081 x_pred[1,17] + 0.0254583060741425 x_pred[1,18]
   - 0.1623620539903641 x_pred[1,19] + 0.1166612729430199 x_pred[1,20]
   - 0.083072766661644 x_pred[1,21] + 0.1005433797836304 x_pred[1,22]
   + 0.1151928529143333 x_pred[1,23] - 0.0427292734384537 x_pred[1,24]
   - 0.0899401903152466 x_pred[1,25] + 0.2680531144142151 x_pred[1,26]
   + 0.1279033124446869 x_pred[1,27] + 0.0343535095453262 x_pred[1,28]
   + 0.1152934581041336 x_pred[1,29] + 0.1262277811765671 x_pred[1,30]
   - 0.0177618078887463 x_pred[1,31] - 0.1072716414928436 x_pred[1,32]
   - 0.1255076080560684 x_pred[1,33] - 0.1673497557640076 x_pred[1,34]
   - 0.1096010431647301 x_pred[1,35] + 0.0317717604339123 x_pred[1,36]
   + sequential0.linear_0.act[0,124] = 0.00523012783378363
 sequential0.linear_0.R360: 0.2143200486898422 x_pred[1,0]
   + 0.0222535599023104 x_pred[1,1] - 0.6996398568153381 x_pred[1,2]
   + 1.886881589889526 x_pred[1,3] + 3.060900211334229 x_pred[1,4]
   - 0.00330775929614902 x_pred[1,5] - 0.050942312926054 x_pred[1,6]
   + 0.00268255872651935 x_pred[1,7] - 0.0225378051400185 x_pred[1,8]
   + 0.0436258241534233 x_pred[1,9] + 0.0412049405276775 x_pred[1,10]
   - 0.0231348499655724 x_pred[1,11] - 0.04118911921978 x_pred[1,12]
   + 0.0164485275745392 x_pred[1,13] - 0.016800582408905 x_pred[1,14]
   - 0.0178350936621428 x_pred[1,15] + 0.1306621134281158 x_pred[1,16]
   - 0.0371882617473602 x_pred[1,17] + 0.051036212593317 x_pred[1,18]
   + 0.0362783372402191 x_pred[1,19] - 0.045641090720892 x_pred[1,20]
   - 0.0219434984028339 x_pred[1,21] + 0.0306786801666021 x_pred[1,22]
   + 0.0434138625860214 x_pred[1,23] + 0.0138809876516461 x_pred[1,24]
   + 0.00285630533471704 x_pred[1,25] - 0.2139363139867783 x_pred[1,26]
   + 0.0327411703765392 x_pred[1,27] - 0.1278691440820694 x_pred[1,28]
   + 0.0228912495076656 x_pred[1,29] - 0.0218288172036409 x_pred[1,30]
   + 0.0224234741181135 x_pred[1,31] + 0.0311588644981384 x_pred[1,32]
   - 0.0433930717408657 x_pred[1,33] + 0.034375973045826 x_pred[1,34]
   - 0.0579978302121162 x_pred[1,35] + 0.0256446544080973 x_pred[1,36]
   + sequential0.linear_0.act[0,125] = -0.0531381331384182
 sequential0.linear_0.R361: 0.0615677908062935 x_pred[1,0]
   + 0.266787052154541 x_pred[1,1] + 0.1807477027177811 x_pred[1,2]
   + 0.2383501529693604 x_pred[1,3] + 0.2486652731895447 x_pred[1,4]
   - 0.1924202889204025 x_pred[1,5] - 0.1542895436286926 x_pred[1,6]
   + 0.1531885862350464 x_pred[1,7] - 0.0454601980745792 x_pred[1,8]
   - 0.1233534216880798 x_pred[1,9] - 0.0289927832782269 x_pred[1,10]
   - 0.00135893 x_pred[1,11] + 0.2465604543685913 x_pred[1,12]
   - 0.0138622988015413 x_pred[1,13] - 0.206476166844368 x_pred[1,14]
   + 0.2202183455228806 x_pred[1,15] - 0.1701123267412186 x_pred[1,16]
   + 0.00864608958363533 x_pred[1,17] + 0.169403612613678 x_pred[1,18]
   + 0.0843618735671043 x_pred[1,19] + 0.0924715250730515 x_pred[1,20]
   - 0.1873253434896469 x_pred[1,21] - 0.1076734587550163 x_pred[1,22]
   - 0.0318159610033035 x_pred[1,23] + 0.0132306274026632 x_pred[1,24]
   - 0.1336127370595932 x_pred[1,25] + 0.1011143252253532 x_pred[1,26]
   + 0.00832993816584349 x_pred[1,27] + 0.0614927858114243 x_pred[1,28]
   + 0.0859121903777122 x_pred[1,29] - 0.0458093695342541 x_pred[1,30]
   - 0.0662543252110481 x_pred[1,31] + 0.0869292616844177 x_pred[1,32]
   + 0.1174044385552406 x_pred[1,33] - 0.1326453685760498 x_pred[1,34]
   + 0.1468238234519958 x_pred[1,35] - 0.0963441282510757 x_pred[1,36]
   + sequential0.linear_0.act[0,126] = -0.0176477339118719
 sequential0.linear_0.R362: 0.2121427655220032 x_pred[1,0]
   + 0.1359522491693497 x_pred[1,1] + 0.1154992952942848 x_pred[1,2]
   + 0.0496469177305698 x_pred[1,3] - 0.0324253402650356 x_pred[1,4]
   - 0.0053399009630084 x_pred[1,5] + 0.1105383038520813 x_pred[1,6]
   + 0.1187227889895439 x_pred[1,7] - 0.0626400336623192 x_pred[1,8]
   - 0.033508837223053 x_pred[1,9] + 0.00110352784395218 x_pred[1,10]
   - 0.031628705561161 x_pred[1,11] + 0.1435477733612061 x_pred[1,12]
   + 0.1368815451860428 x_pred[1,13] + 0.00408685626462102 x_pred[1,14]
   - 0.0873054936528206 x_pred[1,15] - 0.2523053884506226 x_pred[1,16]
   + 0.0193827599287033 x_pred[1,17] + 0.0950253456830978 x_pred[1,18]
   - 0.0774332657456398 x_pred[1,19] - 0.0519552044570446 x_pred[1,20]
   - 0.0179599821567535 x_pred[1,21] + 0.1801426261663437 x_pred[1,22]
   + 0.00780316581949592 x_pred[1,23] - 0.0327442027628422 x_pred[1,24]
   - 0.2105309963226318 x_pred[1,25] + 0.0593647137284279 x_pred[1,26]
   - 0.0525485910475254 x_pred[1,27] - 0.0672080144286156 x_pred[1,28]
   - 0.08596421033144 x_pred[1,29] - 0.0101516917347908 x_pred[1,30]
   - 0.105950340628624 x_pred[1,31] - 0.2179451286792755 x_pred[1,32]
   - 0.016292642802 x_pred[1,33] + 0.0957926362752914 x_pred[1,34]
   + 0.0388296544551849 x_pred[1,35] + 0.0452902764081955 x_pred[1,36]
   + sequential0.linear_0.act[0,127] = -0.0599620305001736
 sequential0.linear_2.R363: y_pred[1,0]
   + 0.0229919739067554 sequential0.relu_1.act[0,0]
   - 0.00454036332666874 sequential0.relu_1.act[0,1]
   + 1.384531021118164 sequential0.relu_1.act[0,2]
   + 0.0140329170972109 sequential0.relu_1.act[0,3]
   + 0.1315259784460068 sequential0.relu_1.act[0,4]
   + 0.0166036766022444 sequential0.relu_1.act[0,5]
   - 0.0129521945491433 sequential0.relu_1.act[0,6]
   + 7.910465938039124e-04 sequential0.relu_1.act[0,7]
   + 0.0571538098156452 sequential0.relu_1.act[0,8]
   - 0.00164259038865566 sequential0.relu_1.act[0,9]
   - 0.00869424641132355 sequential0.relu_1.act[0,10]
   + 0.00490598613396287 sequential0.relu_1.act[0,11]
   - 0.00344633823260665 sequential0.relu_1.act[0,12]
   + 0.00372723815962672 sequential0.relu_1.act[0,13]
   + 0.0851441770792007 sequential0.relu_1.act[0,14]
   - 0.0104397581890225 sequential0.relu_1.act[0,15]
   - 0.1164082810282707 sequential0.relu_1.act[0,16]
   + 0.0689980089664459 sequential0.relu_1.act[0,17]
   - 0.103261686861515 sequential0.relu_1.act[0,18]
   - 0.0174009501934052 sequential0.relu_1.act[0,19]
   - 0.0104922521859407 sequential0.relu_1.act[0,20]
   - 0.0410736389458179 sequential0.relu_1.act[0,21]
   - 0.0228661224246025 sequential0.relu_1.act[0,22]
   - 1.870927691459656 sequential0.relu_1.act[0,23]
   - 0.0243520140647888 sequential0.relu_1.act[0,24]
   - 0.033851619809866 sequential0.relu_1.act[0,25]
   + 0.1708975732326508 sequential0.relu_1.act[0,26]
   + 0.9781737327575684 sequential0.relu_1.act[0,27]
   + 0.0377421304583549 sequential0.relu_1.act[0,28]
   - 0.0137874027714133 sequential0.relu_1.act[0,29]
   + 0.0506309643387794 sequential0.relu_1.act[0,30]
   - 0.0927472189068794 sequential0.relu_1.act[0,31]
   - 2.498663187026978 sequential0.relu_1.act[0,32]
   - 0.0139870485290885 sequential0.relu_1.act[0,33]
   - 2.9938522493466735e-04 sequential0.relu_1.act[0,34]
   - 0.0282409898936749 sequential0.relu_1.act[0,35]
   - 0.0934189483523369 sequential0.relu_1.act[0,36]
   - 0.0142511297017336 sequential0.relu_1.act[0,37]
   - 0.3704342544078827 sequential0.relu_1.act[0,38]
   - 0.0132768740877509 sequential0.relu_1.act[0,39]
   - 8.4895163308829069e-04 sequential0.relu_1.act[0,40]
   + 0.040913138538599 sequential0.relu_1.act[0,41]
   - 1.616593956947327 sequential0.relu_1.act[0,42]
   - 0.00171102082822472 sequential0.relu_1.act[0,43]
   + 0.0387576296925545 sequential0.relu_1.act[0,44]
   + 0.1100176945328712 sequential0.relu_1.act[0,45]
   - 0.1678752154111862 sequential0.relu_1.act[0,46]
   - 0.0154444240033627 sequential0.relu_1.act[0,47]
   - 0.5850942134857178 sequential0.relu_1.act[0,48]
   - 0.00757242552936077 sequential0.relu_1.act[0,49]
   + 0.00144905562046915 sequential0.relu_1.act[0,50]
   + 0.030927749350667 sequential0.relu_1.act[0,51]
   - 0.00798735767602921 sequential0.relu_1.act[0,52]
   - 0.00155248667579144 sequential0.relu_1.act[0,53]
   - 0.0823897868394852 sequential0.relu_1.act[0,54]
   - 0.1013309806585312 sequential0.relu_1.act[0,55]
   - 0.00263123959302902 sequential0.relu_1.act[0,56]
   - 4.1473138844594359e-04 sequential0.relu_1.act[0,57]
   - 0.0468577332794666 sequential0.relu_1.act[0,58]
   + 0.00779961328953505 sequential0.relu_1.act[0,59]
   - 0.0652405917644501 sequential0.relu_1.act[0,60]
   + 0.00273433816619217 sequential0.relu_1.act[0,61]
   - 0.225769892334938 sequential0.relu_1.act[0,62]
   - 0.0249694939702749 sequential0.relu_1.act[0,63]
   - 0.1325460970401764 sequential0.relu_1.act[0,64]
   - 1.977816343307495 sequential0.relu_1.act[0,65]
   - 0.0245261881500483 sequential0.relu_1.act[0,66]
   + 1.6138839418999851e-04 sequential0.relu_1.act[0,67]
   + 0.0804048851132393 sequential0.relu_1.act[0,68]
   - 0.0181089453399181 sequential0.relu_1.act[0,69]
   + 0.0198969859629869 sequential0.relu_1.act[0,70]
   - 0.00381427351385355 sequential0.relu_1.act[0,71]
   + 0.0795559883117676 sequential0.relu_1.act[0,72]
   - 0.0135330054908991 sequential0.relu_1.act[0,73]
   - 0.2375636547803879 sequential0.relu_1.act[0,74]
   + 0.070469431579113 sequential0.relu_1.act[0,75]
   - 0.0415821075439453 sequential0.relu_1.act[0,76]
   - 0.0330431386828423 sequential0.relu_1.act[0,77]
   - 0.0153791988268495 sequential0.relu_1.act[0,78]
   - 0.2934238016605377 sequential0.relu_1.act[0,79]
   - 0.0182744767516851 sequential0.relu_1.act[0,80]
   - 4.4471383444033563e-04 sequential0.relu_1.act[0,81]
   - 0.0559293851256371 sequential0.relu_1.act[0,82]
   + 0.6654166579246521 sequential0.relu_1.act[0,83]
   + 0.00106705958023667 sequential0.relu_1.act[0,84]
   - 0.1034870371222496 sequential0.relu_1.act[0,85]
   - 0.4020403027534485 sequential0.relu_1.act[0,86]
   - 0.00413349317386746 sequential0.relu_1.act[0,87]
   + 1.241661071777344 sequential0.relu_1.act[0,88]
   - 0.00676295394077897 sequential0.relu_1.act[0,89]
   + 0.0349087603390217 sequential0.relu_1.act[0,90]
   - 0.041005827486515 sequential0.relu_1.act[0,91]
   - 0.00333866337314248 sequential0.relu_1.act[0,92]
   + 0.0110507998615503 sequential0.relu_1.act[0,93]
   + 0.7469946146011353 sequential0.relu_1.act[0,94]
   + 1.171380519866943 sequential0.relu_1.act[0,95]
   + 0.0379054583609104 sequential0.relu_1.act[0,96]
   - 0.0316405482590199 sequential0.relu_1.act[0,97]
   - 0.0715645849704742 sequential0.relu_1.act[0,98]
   - 0.00451346067711711 sequential0.relu_1.act[0,99]
   - 0.00401316350325942 sequential0.relu_1.act[0,100]
   + 0.117696724832058 sequential0.relu_1.act[0,101]
   + 0.0728326514363289 sequential0.relu_1.act[0,102]
   - 0.00145994452759624 sequential0.relu_1.act[0,103]
   - 0.0283939447253942 sequential0.relu_1.act[0,104]
   - 4.4002814684063196e-04 sequential0.relu_1.act[0,105]
   - 0.0713048800826073 sequential0.relu_1.act[0,106]
   - 0.0343893729150295 sequential0.relu_1.act[0,107]
   - 0.1798302382230759 sequential0.relu_1.act[0,108]
   + 0.0125193484127522 sequential0.relu_1.act[0,109]
   + 0.0667521208524704 sequential0.relu_1.act[0,110]
   - 0.0249859467148781 sequential0.relu_1.act[0,111]
   - 0.0333100520074368 sequential0.relu_1.act[0,112]
   - 0.00409815600141883 sequential0.relu_1.act[0,113]
   - 0.0636412426829338 sequential0.relu_1.act[0,114]
   - 0.0170258861035109 sequential0.relu_1.act[0,115]
   - 0.00832602102309465 sequential0.relu_1.act[0,116]
   + 0.0183246899396181 sequential0.relu_1.act[0,117]
   + 0.0519694462418556 sequential0.relu_1.act[0,118]
   + 0.00669567147269845 sequential0.relu_1.act[0,119]
   - 2.366007804870605 sequential0.relu_1.act[0,120]
   + 0.0167669095098972 sequential0.relu_1.act[0,121]
   + 0.0277560222893953 sequential0.relu_1.act[0,122]
   - 0.00751227186992764 sequential0.relu_1.act[0,123]
   - 0.0117252953350544 sequential0.relu_1.act[0,124]
   + 1.243534207344055 sequential0.relu_1.act[0,125]
   - 0.00775583507493138 sequential0.relu_1.act[0,126]
   - 0.00470795668661594 sequential0.relu_1.act[0,127]
   = 0.3818977177143097
 set_vf: y_vf[0] - 0.5 y_pred[0,0] - 0.5 y_pred[1,0] = 0
Bounds
 y_vf[0] free
 x_wf[0,0] free
 x_wf[0,1] free
 x_wf[0,2] free
 x_wf[0,3] free
 x_wf[0,4] free
 x_wf[0,5] free
 x_wf[0,6] free
 x_wf[0,7] free
 x_wf[0,8] free
 x_wf[0,9] free
 x_wf[0,10] free
 x_wf[0,11] free
 x_wf[0,12] free
 x_wf[0,13] free
 x_wf[0,14] free
 x_wf[1,0] free
 x_wf[1,1] free
 x_wf[1,2] free
 x_wf[1,3] free
 x_wf[1,4] free
 x_wf[1,5] free
 x_wf[1,6] free
 x_wf[1,7] free
 x_wf[1,8] free
 x_wf[1,9] free
 x_wf[1,10] free
 x_wf[1,11] free
 x_wf[1,12] free
 x_wf[1,13] free
 x_wf[1,14] free
 x_pred[0,0] free
 x_pred[0,1] free
 x_pred[0,2] free
 x_pred[0,3] free
 x_pred[0,4] free
 x_pred[0,5] free
 x_pred[0,6] free
 x_pred[0,7] free
 x_pred[0,8] free
 x_pred[0,9] free
 x_pred[0,10] free
 x_pred[0,11] free
 x_pred[0,12] free
 x_pred[0,13] free
 x_pred[0,14] free
 x_pred[0,15] free
 x_pred[0,16] free
 x_pred[0,17] free
 x_pred[0,18] free
 x_pred[0,19] free
 x_pred[0,20] free
 x_pred[0,21] free
 x_pred[0,22] free
 x_pred[0,23] free
 x_pred[0,24] free
 x_pred[0,25] free
 x_pred[0,26] free
 x_pred[0,27] free
 x_pred[0,28] free
 x_pred[0,29] free
 x_pred[0,30] free
 x_pred[0,31] free
 x_pred[0,32] free
 x_pred[0,33] free
 x_pred[0,34] free
 x_pred[0,35] free
 x_pred[0,36] free
 x_pred[1,0] free
 x_pred[1,1] free
 x_pred[1,2] free
 x_pred[1,3] free
 x_pred[1,4] free
 x_pred[1,5] free
 x_pred[1,6] free
 x_pred[1,7] free
 x_pred[1,8] free
 x_pred[1,9] free
 x_pred[1,10] free
 x_pred[1,11] free
 x_pred[1,12] free
 x_pred[1,13] free
 x_pred[1,14] free
 x_pred[1,15] free
 x_pred[1,16] free
 x_pred[1,17] free
 x_pred[1,18] free
 x_pred[1,19] free
 x_pred[1,20] free
 x_pred[1,21] free
 x_pred[1,22] free
 x_pred[1,23] free
 x_pred[1,24] free
 x_pred[1,25] free
 x_pred[1,26] free
 x_pred[1,27] free
 x_pred[1,28] free
 x_pred[1,29] free
 x_pred[1,30] free
 x_pred[1,31] free
 x_pred[1,32] free
 x_pred[1,33] free
 x_pred[1,34] free
 x_pred[1,35] free
 x_pred[1,36] free
 y_pred[0,0] free
 y_pred[1,0] free
 sequential.linear_0.act[0,0] free
 sequential.linear_0.act[0,1] free
 sequential.linear_0.act[0,2] free
 sequential.linear_0.act[0,3] free
 sequential.linear_0.act[0,4] free
 sequential.linear_0.act[0,5] free
 sequential.linear_0.act[0,6] free
 sequential.linear_0.act[0,7] free
 sequential.linear_0.act[0,8] free
 sequential.linear_0.act[0,9] free
 sequential.linear_0.act[0,10] free
 sequential.linear_0.act[0,11] free
 sequential.linear_0.act[0,12] free
 sequential.linear_0.act[0,13] free
 sequential.linear_0.act[0,14] free
 sequential.linear_0.act[0,15] free
 sequential.linear_0.act[0,16] free
 sequential.linear_0.act[0,17] free
 sequential.linear_0.act[0,18] free
 sequential.linear_0.act[0,19] free
 sequential.linear_0.act[0,20] free
 sequential.linear_0.act[0,21] free
 sequential.linear_0.act[0,22] free
 sequential.linear_0.act[0,23] free
 sequential.linear_0.act[0,24] free
 sequential.linear_0.act[0,25] free
 sequential.linear_0.act[0,26] free
 sequential.linear_0.act[0,27] free
 sequential.linear_0.act[0,28] free
 sequential.linear_0.act[0,29] free
 sequential.linear_0.act[0,30] free
 sequential.linear_0.act[0,31] free
 sequential.linear_0.act[0,32] free
 sequential.linear_0.act[0,33] free
 sequential.linear_0.act[0,34] free
 sequential.linear_0.act[0,35] free
 sequential.linear_0.act[0,36] free
 sequential.linear_0.act[0,37] free
 sequential.linear_0.act[0,38] free
 sequential.linear_0.act[0,39] free
 sequential.linear_0.act[0,40] free
 sequential.linear_0.act[0,41] free
 sequential.linear_0.act[0,42] free
 sequential.linear_0.act[0,43] free
 sequential.linear_0.act[0,44] free
 sequential.linear_0.act[0,45] free
 sequential.linear_0.act[0,46] free
 sequential.linear_0.act[0,47] free
 sequential.linear_0.act[0,48] free
 sequential.linear_0.act[0,49] free
 sequential.linear_0.act[0,50] free
 sequential.linear_0.act[0,51] free
 sequential.linear_0.act[0,52] free
 sequential.linear_0.act[0,53] free
 sequential.linear_0.act[0,54] free
 sequential.linear_0.act[0,55] free
 sequential.linear_0.act[0,56] free
 sequential.linear_0.act[0,57] free
 sequential.linear_0.act[0,58] free
 sequential.linear_0.act[0,59] free
 sequential.linear_0.act[0,60] free
 sequential.linear_0.act[0,61] free
 sequential.linear_0.act[0,62] free
 sequential.linear_0.act[0,63] free
 sequential.linear_0.act[0,64] free
 sequential.linear_0.act[0,65] free
 sequential.linear_0.act[0,66] free
 sequential.linear_0.act[0,67] free
 sequential.linear_0.act[0,68] free
 sequential.linear_0.act[0,69] free
 sequential.linear_0.act[0,70] free
 sequential.linear_0.act[0,71] free
 sequential.linear_0.act[0,72] free
 sequential.linear_0.act[0,73] free
 sequential.linear_0.act[0,74] free
 sequential.linear_0.act[0,75] free
 sequential.linear_0.act[0,76] free
 sequential.linear_0.act[0,77] free
 sequential.linear_0.act[0,78] free
 sequential.linear_0.act[0,79] free
 sequential.linear_0.act[0,80] free
 sequential.linear_0.act[0,81] free
 sequential.linear_0.act[0,82] free
 sequential.linear_0.act[0,83] free
 sequential.linear_0.act[0,84] free
 sequential.linear_0.act[0,85] free
 sequential.linear_0.act[0,86] free
 sequential.linear_0.act[0,87] free
 sequential.linear_0.act[0,88] free
 sequential.linear_0.act[0,89] free
 sequential.linear_0.act[0,90] free
 sequential.linear_0.act[0,91] free
 sequential.linear_0.act[0,92] free
 sequential.linear_0.act[0,93] free
 sequential.linear_0.act[0,94] free
 sequential.linear_0.act[0,95] free
 sequential.linear_0.act[0,96] free
 sequential.linear_0.act[0,97] free
 sequential.linear_0.act[0,98] free
 sequential.linear_0.act[0,99] free
 sequential.linear_0.act[0,100] free
 sequential.linear_0.act[0,101] free
 sequential.linear_0.act[0,102] free
 sequential.linear_0.act[0,103] free
 sequential.linear_0.act[0,104] free
 sequential.linear_0.act[0,105] free
 sequential.linear_0.act[0,106] free
 sequential.linear_0.act[0,107] free
 sequential.linear_0.act[0,108] free
 sequential.linear_0.act[0,109] free
 sequential.linear_0.act[0,110] free
 sequential.linear_0.act[0,111] free
 sequential.linear_0.act[0,112] free
 sequential.linear_0.act[0,113] free
 sequential.linear_0.act[0,114] free
 sequential.linear_0.act[0,115] free
 sequential.linear_0.act[0,116] free
 sequential.linear_0.act[0,117] free
 sequential.linear_0.act[0,118] free
 sequential.linear_0.act[0,119] free
 sequential.linear_0.act[0,120] free
 sequential.linear_0.act[0,121] free
 sequential.linear_0.act[0,122] free
 sequential.linear_0.act[0,123] free
 sequential.linear_0.act[0,124] free
 sequential.linear_0.act[0,125] free
 sequential.linear_0.act[0,126] free
 sequential.linear_0.act[0,127] free
 sequential.relu_1.act[0,0] free
 sequential.relu_1.act[0,1] free
 sequential.relu_1.act[0,2] free
 sequential.relu_1.act[0,3] free
 sequential.relu_1.act[0,4] free
 sequential.relu_1.act[0,5] free
 sequential.relu_1.act[0,6] free
 sequential.relu_1.act[0,7] free
 sequential.relu_1.act[0,8] free
 sequential.relu_1.act[0,9] free
 sequential.relu_1.act[0,10] free
 sequential.relu_1.act[0,11] free
 sequential.relu_1.act[0,12] free
 sequential.relu_1.act[0,13] free
 sequential.relu_1.act[0,14] free
 sequential.relu_1.act[0,15] free
 sequential.relu_1.act[0,16] free
 sequential.relu_1.act[0,17] free
 sequential.relu_1.act[0,18] free
 sequential.relu_1.act[0,19] free
 sequential.relu_1.act[0,20] free
 sequential.relu_1.act[0,21] free
 sequential.relu_1.act[0,22] free
 sequential.relu_1.act[0,23] free
 sequential.relu_1.act[0,24] free
 sequential.relu_1.act[0,25] free
 sequential.relu_1.act[0,26] free
 sequential.relu_1.act[0,27] free
 sequential.relu_1.act[0,28] free
 sequential.relu_1.act[0,29] free
 sequential.relu_1.act[0,30] free
 sequential.relu_1.act[0,31] free
 sequential.relu_1.act[0,32] free
 sequential.relu_1.act[0,33] free
 sequential.relu_1.act[0,34] free
 sequential.relu_1.act[0,35] free
 sequential.relu_1.act[0,36] free
 sequential.relu_1.act[0,37] free
 sequential.relu_1.act[0,38] free
 sequential.relu_1.act[0,39] free
 sequential.relu_1.act[0,40] free
 sequential.relu_1.act[0,41] free
 sequential.relu_1.act[0,42] free
 sequential.relu_1.act[0,43] free
 sequential.relu_1.act[0,44] free
 sequential.relu_1.act[0,45] free
 sequential.relu_1.act[0,46] free
 sequential.relu_1.act[0,47] free
 sequential.relu_1.act[0,48] free
 sequential.relu_1.act[0,49] free
 sequential.relu_1.act[0,50] free
 sequential.relu_1.act[0,51] free
 sequential.relu_1.act[0,52] free
 sequential.relu_1.act[0,53] free
 sequential.relu_1.act[0,54] free
 sequential.relu_1.act[0,55] free
 sequential.relu_1.act[0,56] free
 sequential.relu_1.act[0,57] free
 sequential.relu_1.act[0,58] free
 sequential.relu_1.act[0,59] free
 sequential.relu_1.act[0,60] free
 sequential.relu_1.act[0,61] free
 sequential.relu_1.act[0,62] free
 sequential.relu_1.act[0,63] free
 sequential.relu_1.act[0,64] free
 sequential.relu_1.act[0,65] free
 sequential.relu_1.act[0,66] free
 sequential.relu_1.act[0,67] free
 sequential.relu_1.act[0,68] free
 sequential.relu_1.act[0,69] free
 sequential.relu_1.act[0,70] free
 sequential.relu_1.act[0,71] free
 sequential.relu_1.act[0,72] free
 sequential.relu_1.act[0,73] free
 sequential.relu_1.act[0,74] free
 sequential.relu_1.act[0,75] free
 sequential.relu_1.act[0,76] free
 sequential.relu_1.act[0,77] free
 sequential.relu_1.act[0,78] free
 sequential.relu_1.act[0,79] free
 sequential.relu_1.act[0,80] free
 sequential.relu_1.act[0,81] free
 sequential.relu_1.act[0,82] free
 sequential.relu_1.act[0,83] free
 sequential.relu_1.act[0,84] free
 sequential.relu_1.act[0,85] free
 sequential.relu_1.act[0,86] free
 sequential.relu_1.act[0,87] free
 sequential.relu_1.act[0,88] free
 sequential.relu_1.act[0,89] free
 sequential.relu_1.act[0,90] free
 sequential.relu_1.act[0,91] free
 sequential.relu_1.act[0,92] free
 sequential.relu_1.act[0,93] free
 sequential.relu_1.act[0,94] free
 sequential.relu_1.act[0,95] free
 sequential.relu_1.act[0,96] free
 sequential.relu_1.act[0,97] free
 sequential.relu_1.act[0,98] free
 sequential.relu_1.act[0,99] free
 sequential.relu_1.act[0,100] free
 sequential.relu_1.act[0,101] free
 sequential.relu_1.act[0,102] free
 sequential.relu_1.act[0,103] free
 sequential.relu_1.act[0,104] free
 sequential.relu_1.act[0,105] free
 sequential.relu_1.act[0,106] free
 sequential.relu_1.act[0,107] free
 sequential.relu_1.act[0,108] free
 sequential.relu_1.act[0,109] free
 sequential.relu_1.act[0,110] free
 sequential.relu_1.act[0,111] free
 sequential.relu_1.act[0,112] free
 sequential.relu_1.act[0,113] free
 sequential.relu_1.act[0,114] free
 sequential.relu_1.act[0,115] free
 sequential.relu_1.act[0,116] free
 sequential.relu_1.act[0,117] free
 sequential.relu_1.act[0,118] free
 sequential.relu_1.act[0,119] free
 sequential.relu_1.act[0,120] free
 sequential.relu_1.act[0,121] free
 sequential.relu_1.act[0,122] free
 sequential.relu_1.act[0,123] free
 sequential.relu_1.act[0,124] free
 sequential.relu_1.act[0,125] free
 sequential.relu_1.act[0,126] free
 sequential.relu_1.act[0,127] free
 sequential0.linear_0.act[0,0] free
 sequential0.linear_0.act[0,1] free
 sequential0.linear_0.act[0,2] free
 sequential0.linear_0.act[0,3] free
 sequential0.linear_0.act[0,4] free
 sequential0.linear_0.act[0,5] free
 sequential0.linear_0.act[0,6] free
 sequential0.linear_0.act[0,7] free
 sequential0.linear_0.act[0,8] free
 sequential0.linear_0.act[0,9] free
 sequential0.linear_0.act[0,10] free
 sequential0.linear_0.act[0,11] free
 sequential0.linear_0.act[0,12] free
 sequential0.linear_0.act[0,13] free
 sequential0.linear_0.act[0,14] free
 sequential0.linear_0.act[0,15] free
 sequential0.linear_0.act[0,16] free
 sequential0.linear_0.act[0,17] free
 sequential0.linear_0.act[0,18] free
 sequential0.linear_0.act[0,19] free
 sequential0.linear_0.act[0,20] free
 sequential0.linear_0.act[0,21] free
 sequential0.linear_0.act[0,22] free
 sequential0.linear_0.act[0,23] free
 sequential0.linear_0.act[0,24] free
 sequential0.linear_0.act[0,25] free
 sequential0.linear_0.act[0,26] free
 sequential0.linear_0.act[0,27] free
 sequential0.linear_0.act[0,28] free
 sequential0.linear_0.act[0,29] free
 sequential0.linear_0.act[0,30] free
 sequential0.linear_0.act[0,31] free
 sequential0.linear_0.act[0,32] free
 sequential0.linear_0.act[0,33] free
 sequential0.linear_0.act[0,34] free
 sequential0.linear_0.act[0,35] free
 sequential0.linear_0.act[0,36] free
 sequential0.linear_0.act[0,37] free
 sequential0.linear_0.act[0,38] free
 sequential0.linear_0.act[0,39] free
 sequential0.linear_0.act[0,40] free
 sequential0.linear_0.act[0,41] free
 sequential0.linear_0.act[0,42] free
 sequential0.linear_0.act[0,43] free
 sequential0.linear_0.act[0,44] free
 sequential0.linear_0.act[0,45] free
 sequential0.linear_0.act[0,46] free
 sequential0.linear_0.act[0,47] free
 sequential0.linear_0.act[0,48] free
 sequential0.linear_0.act[0,49] free
 sequential0.linear_0.act[0,50] free
 sequential0.linear_0.act[0,51] free
 sequential0.linear_0.act[0,52] free
 sequential0.linear_0.act[0,53] free
 sequential0.linear_0.act[0,54] free
 sequential0.linear_0.act[0,55] free
 sequential0.linear_0.act[0,56] free
 sequential0.linear_0.act[0,57] free
 sequential0.linear_0.act[0,58] free
 sequential0.linear_0.act[0,59] free
 sequential0.linear_0.act[0,60] free
 sequential0.linear_0.act[0,61] free
 sequential0.linear_0.act[0,62] free
 sequential0.linear_0.act[0,63] free
 sequential0.linear_0.act[0,64] free
 sequential0.linear_0.act[0,65] free
 sequential0.linear_0.act[0,66] free
 sequential0.linear_0.act[0,67] free
 sequential0.linear_0.act[0,68] free
 sequential0.linear_0.act[0,69] free
 sequential0.linear_0.act[0,70] free
 sequential0.linear_0.act[0,71] free
 sequential0.linear_0.act[0,72] free
 sequential0.linear_0.act[0,73] free
 sequential0.linear_0.act[0,74] free
 sequential0.linear_0.act[0,75] free
 sequential0.linear_0.act[0,76] free
 sequential0.linear_0.act[0,77] free
 sequential0.linear_0.act[0,78] free
 sequential0.linear_0.act[0,79] free
 sequential0.linear_0.act[0,80] free
 sequential0.linear_0.act[0,81] free
 sequential0.linear_0.act[0,82] free
 sequential0.linear_0.act[0,83] free
 sequential0.linear_0.act[0,84] free
 sequential0.linear_0.act[0,85] free
 sequential0.linear_0.act[0,86] free
 sequential0.linear_0.act[0,87] free
 sequential0.linear_0.act[0,88] free
 sequential0.linear_0.act[0,89] free
 sequential0.linear_0.act[0,90] free
 sequential0.linear_0.act[0,91] free
 sequential0.linear_0.act[0,92] free
 sequential0.linear_0.act[0,93] free
 sequential0.linear_0.act[0,94] free
 sequential0.linear_0.act[0,95] free
 sequential0.linear_0.act[0,96] free
 sequential0.linear_0.act[0,97] free
 sequential0.linear_0.act[0,98] free
 sequential0.linear_0.act[0,99] free
 sequential0.linear_0.act[0,100] free
 sequential0.linear_0.act[0,101] free
 sequential0.linear_0.act[0,102] free
 sequential0.linear_0.act[0,103] free
 sequential0.linear_0.act[0,104] free
 sequential0.linear_0.act[0,105] free
 sequential0.linear_0.act[0,106] free
 sequential0.linear_0.act[0,107] free
 sequential0.linear_0.act[0,108] free
 sequential0.linear_0.act[0,109] free
 sequential0.linear_0.act[0,110] free
 sequential0.linear_0.act[0,111] free
 sequential0.linear_0.act[0,112] free
 sequential0.linear_0.act[0,113] free
 sequential0.linear_0.act[0,114] free
 sequential0.linear_0.act[0,115] free
 sequential0.linear_0.act[0,116] free
 sequential0.linear_0.act[0,117] free
 sequential0.linear_0.act[0,118] free
 sequential0.linear_0.act[0,119] free
 sequential0.linear_0.act[0,120] free
 sequential0.linear_0.act[0,121] free
 sequential0.linear_0.act[0,122] free
 sequential0.linear_0.act[0,123] free
 sequential0.linear_0.act[0,124] free
 sequential0.linear_0.act[0,125] free
 sequential0.linear_0.act[0,126] free
 sequential0.linear_0.act[0,127] free
 sequential0.relu_1.act[0,0] free
 sequential0.relu_1.act[0,1] free
 sequential0.relu_1.act[0,2] free
 sequential0.relu_1.act[0,3] free
 sequential0.relu_1.act[0,4] free
 sequential0.relu_1.act[0,5] free
 sequential0.relu_1.act[0,6] free
 sequential0.relu_1.act[0,7] free
 sequential0.relu_1.act[0,8] free
 sequential0.relu_1.act[0,9] free
 sequential0.relu_1.act[0,10] free
 sequential0.relu_1.act[0,11] free
 sequential0.relu_1.act[0,12] free
 sequential0.relu_1.act[0,13] free
 sequential0.relu_1.act[0,14] free
 sequential0.relu_1.act[0,15] free
 sequential0.relu_1.act[0,16] free
 sequential0.relu_1.act[0,17] free
 sequential0.relu_1.act[0,18] free
 sequential0.relu_1.act[0,19] free
 sequential0.relu_1.act[0,20] free
 sequential0.relu_1.act[0,21] free
 sequential0.relu_1.act[0,22] free
 sequential0.relu_1.act[0,23] free
 sequential0.relu_1.act[0,24] free
 sequential0.relu_1.act[0,25] free
 sequential0.relu_1.act[0,26] free
 sequential0.relu_1.act[0,27] free
 sequential0.relu_1.act[0,28] free
 sequential0.relu_1.act[0,29] free
 sequential0.relu_1.act[0,30] free
 sequential0.relu_1.act[0,31] free
 sequential0.relu_1.act[0,32] free
 sequential0.relu_1.act[0,33] free
 sequential0.relu_1.act[0,34] free
 sequential0.relu_1.act[0,35] free
 sequential0.relu_1.act[0,36] free
 sequential0.relu_1.act[0,37] free
 sequential0.relu_1.act[0,38] free
 sequential0.relu_1.act[0,39] free
 sequential0.relu_1.act[0,40] free
 sequential0.relu_1.act[0,41] free
 sequential0.relu_1.act[0,42] free
 sequential0.relu_1.act[0,43] free
 sequential0.relu_1.act[0,44] free
 sequential0.relu_1.act[0,45] free
 sequential0.relu_1.act[0,46] free
 sequential0.relu_1.act[0,47] free
 sequential0.relu_1.act[0,48] free
 sequential0.relu_1.act[0,49] free
 sequential0.relu_1.act[0,50] free
 sequential0.relu_1.act[0,51] free
 sequential0.relu_1.act[0,52] free
 sequential0.relu_1.act[0,53] free
 sequential0.relu_1.act[0,54] free
 sequential0.relu_1.act[0,55] free
 sequential0.relu_1.act[0,56] free
 sequential0.relu_1.act[0,57] free
 sequential0.relu_1.act[0,58] free
 sequential0.relu_1.act[0,59] free
 sequential0.relu_1.act[0,60] free
 sequential0.relu_1.act[0,61] free
 sequential0.relu_1.act[0,62] free
 sequential0.relu_1.act[0,63] free
 sequential0.relu_1.act[0,64] free
 sequential0.relu_1.act[0,65] free
 sequential0.relu_1.act[0,66] free
 sequential0.relu_1.act[0,67] free
 sequential0.relu_1.act[0,68] free
 sequential0.relu_1.act[0,69] free
 sequential0.relu_1.act[0,70] free
 sequential0.relu_1.act[0,71] free
 sequential0.relu_1.act[0,72] free
 sequential0.relu_1.act[0,73] free
 sequential0.relu_1.act[0,74] free
 sequential0.relu_1.act[0,75] free
 sequential0.relu_1.act[0,76] free
 sequential0.relu_1.act[0,77] free
 sequential0.relu_1.act[0,78] free
 sequential0.relu_1.act[0,79] free
 sequential0.relu_1.act[0,80] free
 sequential0.relu_1.act[0,81] free
 sequential0.relu_1.act[0,82] free
 sequential0.relu_1.act[0,83] free
 sequential0.relu_1.act[0,84] free
 sequential0.relu_1.act[0,85] free
 sequential0.relu_1.act[0,86] free
 sequential0.relu_1.act[0,87] free
 sequential0.relu_1.act[0,88] free
 sequential0.relu_1.act[0,89] free
 sequential0.relu_1.act[0,90] free
 sequential0.relu_1.act[0,91] free
 sequential0.relu_1.act[0,92] free
 sequential0.relu_1.act[0,93] free
 sequential0.relu_1.act[0,94] free
 sequential0.relu_1.act[0,95] free
 sequential0.relu_1.act[0,96] free
 sequential0.relu_1.act[0,97] free
 sequential0.relu_1.act[0,98] free
 sequential0.relu_1.act[0,99] free
 sequential0.relu_1.act[0,100] free
 sequential0.relu_1.act[0,101] free
 sequential0.relu_1.act[0,102] free
 sequential0.relu_1.act[0,103] free
 sequential0.relu_1.act[0,104] free
 sequential0.relu_1.act[0,105] free
 sequential0.relu_1.act[0,106] free
 sequential0.relu_1.act[0,107] free
 sequential0.relu_1.act[0,108] free
 sequential0.relu_1.act[0,109] free
 sequential0.relu_1.act[0,110] free
 sequential0.relu_1.act[0,111] free
 sequential0.relu_1.act[0,112] free
 sequential0.relu_1.act[0,113] free
 sequential0.relu_1.act[0,114] free
 sequential0.relu_1.act[0,115] free
 sequential0.relu_1.act[0,116] free
 sequential0.relu_1.act[0,117] free
 sequential0.relu_1.act[0,118] free
 sequential0.relu_1.act[0,119] free
 sequential0.relu_1.act[0,120] free
 sequential0.relu_1.act[0,121] free
 sequential0.relu_1.act[0,122] free
 sequential0.relu_1.act[0,123] free
 sequential0.relu_1.act[0,124] free
 sequential0.relu_1.act[0,125] free
 sequential0.relu_1.act[0,126] free
 sequential0.relu_1.act[0,127] free
Binaries
 x_oh[0,0] x_oh[0,1] x_oh[0,2] x_oh[1,0] x_oh[1,1] x_oh[1,2]
General Constraints
 sequential.relu_1.relu[(0,0)]: sequential.relu_1.act[0,0] = MAX (
   sequential.linear_0.act[0,0] , 0 )
 sequential.relu_1.relu[(0,1)]: sequential.relu_1.act[0,1] = MAX (
   sequential.linear_0.act[0,1] , 0 )
 sequential.relu_1.relu[(0,2)]: sequential.relu_1.act[0,2] = MAX (
   sequential.linear_0.act[0,2] , 0 )
 sequential.relu_1.relu[(0,3)]: sequential.relu_1.act[0,3] = MAX (
   sequential.linear_0.act[0,3] , 0 )
 sequential.relu_1.relu[(0,4)]: sequential.relu_1.act[0,4] = MAX (
   sequential.linear_0.act[0,4] , 0 )
 sequential.relu_1.relu[(0,5)]: sequential.relu_1.act[0,5] = MAX (
   sequential.linear_0.act[0,5] , 0 )
 sequential.relu_1.relu[(0,6)]: sequential.relu_1.act[0,6] = MAX (
   sequential.linear_0.act[0,6] , 0 )
 sequential.relu_1.relu[(0,7)]: sequential.relu_1.act[0,7] = MAX (
   sequential.linear_0.act[0,7] , 0 )
 sequential.relu_1.relu[(0,8)]: sequential.relu_1.act[0,8] = MAX (
   sequential.linear_0.act[0,8] , 0 )
 sequential.relu_1.relu[(0,9)]: sequential.relu_1.act[0,9] = MAX (
   sequential.linear_0.act[0,9] , 0 )
 sequential.relu_1.relu[(0,10)]: sequential.relu_1.act[0,10] = MAX (
   sequential.linear_0.act[0,10] , 0 )
 sequential.relu_1.relu[(0,11)]: sequential.relu_1.act[0,11] = MAX (
   sequential.linear_0.act[0,11] , 0 )
 sequential.relu_1.relu[(0,12)]: sequential.relu_1.act[0,12] = MAX (
   sequential.linear_0.act[0,12] , 0 )
 sequential.relu_1.relu[(0,13)]: sequential.relu_1.act[0,13] = MAX (
   sequential.linear_0.act[0,13] , 0 )
 sequential.relu_1.relu[(0,14)]: sequential.relu_1.act[0,14] = MAX (
   sequential.linear_0.act[0,14] , 0 )
 sequential.relu_1.relu[(0,15)]: sequential.relu_1.act[0,15] = MAX (
   sequential.linear_0.act[0,15] , 0 )
 sequential.relu_1.relu[(0,16)]: sequential.relu_1.act[0,16] = MAX (
   sequential.linear_0.act[0,16] , 0 )
 sequential.relu_1.relu[(0,17)]: sequential.relu_1.act[0,17] = MAX (
   sequential.linear_0.act[0,17] , 0 )
 sequential.relu_1.relu[(0,18)]: sequential.relu_1.act[0,18] = MAX (
   sequential.linear_0.act[0,18] , 0 )
 sequential.relu_1.relu[(0,19)]: sequential.relu_1.act[0,19] = MAX (
   sequential.linear_0.act[0,19] , 0 )
 sequential.relu_1.relu[(0,20)]: sequential.relu_1.act[0,20] = MAX (
   sequential.linear_0.act[0,20] , 0 )
 sequential.relu_1.relu[(0,21)]: sequential.relu_1.act[0,21] = MAX (
   sequential.linear_0.act[0,21] , 0 )
 sequential.relu_1.relu[(0,22)]: sequential.relu_1.act[0,22] = MAX (
   sequential.linear_0.act[0,22] , 0 )
 sequential.relu_1.relu[(0,23)]: sequential.relu_1.act[0,23] = MAX (
   sequential.linear_0.act[0,23] , 0 )
 sequential.relu_1.relu[(0,24)]: sequential.relu_1.act[0,24] = MAX (
   sequential.linear_0.act[0,24] , 0 )
 sequential.relu_1.relu[(0,25)]: sequential.relu_1.act[0,25] = MAX (
   sequential.linear_0.act[0,25] , 0 )
 sequential.relu_1.relu[(0,26)]: sequential.relu_1.act[0,26] = MAX (
   sequential.linear_0.act[0,26] , 0 )
 sequential.relu_1.relu[(0,27)]: sequential.relu_1.act[0,27] = MAX (
   sequential.linear_0.act[0,27] , 0 )
 sequential.relu_1.relu[(0,28)]: sequential.relu_1.act[0,28] = MAX (
   sequential.linear_0.act[0,28] , 0 )
 sequential.relu_1.relu[(0,29)]: sequential.relu_1.act[0,29] = MAX (
   sequential.linear_0.act[0,29] , 0 )
 sequential.relu_1.relu[(0,30)]: sequential.relu_1.act[0,30] = MAX (
   sequential.linear_0.act[0,30] , 0 )
 sequential.relu_1.relu[(0,31)]: sequential.relu_1.act[0,31] = MAX (
   sequential.linear_0.act[0,31] , 0 )
 sequential.relu_1.relu[(0,32)]: sequential.relu_1.act[0,32] = MAX (
   sequential.linear_0.act[0,32] , 0 )
 sequential.relu_1.relu[(0,33)]: sequential.relu_1.act[0,33] = MAX (
   sequential.linear_0.act[0,33] , 0 )
 sequential.relu_1.relu[(0,34)]: sequential.relu_1.act[0,34] = MAX (
   sequential.linear_0.act[0,34] , 0 )
 sequential.relu_1.relu[(0,35)]: sequential.relu_1.act[0,35] = MAX (
   sequential.linear_0.act[0,35] , 0 )
 sequential.relu_1.relu[(0,36)]: sequential.relu_1.act[0,36] = MAX (
   sequential.linear_0.act[0,36] , 0 )
 sequential.relu_1.relu[(0,37)]: sequential.relu_1.act[0,37] = MAX (
   sequential.linear_0.act[0,37] , 0 )
 sequential.relu_1.relu[(0,38)]: sequential.relu_1.act[0,38] = MAX (
   sequential.linear_0.act[0,38] , 0 )
 sequential.relu_1.relu[(0,39)]: sequential.relu_1.act[0,39] = MAX (
   sequential.linear_0.act[0,39] , 0 )
 sequential.relu_1.relu[(0,40)]: sequential.relu_1.act[0,40] = MAX (
   sequential.linear_0.act[0,40] , 0 )
 sequential.relu_1.relu[(0,41)]: sequential.relu_1.act[0,41] = MAX (
   sequential.linear_0.act[0,41] , 0 )
 sequential.relu_1.relu[(0,42)]: sequential.relu_1.act[0,42] = MAX (
   sequential.linear_0.act[0,42] , 0 )
 sequential.relu_1.relu[(0,43)]: sequential.relu_1.act[0,43] = MAX (
   sequential.linear_0.act[0,43] , 0 )
 sequential.relu_1.relu[(0,44)]: sequential.relu_1.act[0,44] = MAX (
   sequential.linear_0.act[0,44] , 0 )
 sequential.relu_1.relu[(0,45)]: sequential.relu_1.act[0,45] = MAX (
   sequential.linear_0.act[0,45] , 0 )
 sequential.relu_1.relu[(0,46)]: sequential.relu_1.act[0,46] = MAX (
   sequential.linear_0.act[0,46] , 0 )
 sequential.relu_1.relu[(0,47)]: sequential.relu_1.act[0,47] = MAX (
   sequential.linear_0.act[0,47] , 0 )
 sequential.relu_1.relu[(0,48)]: sequential.relu_1.act[0,48] = MAX (
   sequential.linear_0.act[0,48] , 0 )
 sequential.relu_1.relu[(0,49)]: sequential.relu_1.act[0,49] = MAX (
   sequential.linear_0.act[0,49] , 0 )
 sequential.relu_1.relu[(0,50)]: sequential.relu_1.act[0,50] = MAX (
   sequential.linear_0.act[0,50] , 0 )
 sequential.relu_1.relu[(0,51)]: sequential.relu_1.act[0,51] = MAX (
   sequential.linear_0.act[0,51] , 0 )
 sequential.relu_1.relu[(0,52)]: sequential.relu_1.act[0,52] = MAX (
   sequential.linear_0.act[0,52] , 0 )
 sequential.relu_1.relu[(0,53)]: sequential.relu_1.act[0,53] = MAX (
   sequential.linear_0.act[0,53] , 0 )
 sequential.relu_1.relu[(0,54)]: sequential.relu_1.act[0,54] = MAX (
   sequential.linear_0.act[0,54] , 0 )
 sequential.relu_1.relu[(0,55)]: sequential.relu_1.act[0,55] = MAX (
   sequential.linear_0.act[0,55] , 0 )
 sequential.relu_1.relu[(0,56)]: sequential.relu_1.act[0,56] = MAX (
   sequential.linear_0.act[0,56] , 0 )
 sequential.relu_1.relu[(0,57)]: sequential.relu_1.act[0,57] = MAX (
   sequential.linear_0.act[0,57] , 0 )
 sequential.relu_1.relu[(0,58)]: sequential.relu_1.act[0,58] = MAX (
   sequential.linear_0.act[0,58] , 0 )
 sequential.relu_1.relu[(0,59)]: sequential.relu_1.act[0,59] = MAX (
   sequential.linear_0.act[0,59] , 0 )
 sequential.relu_1.relu[(0,60)]: sequential.relu_1.act[0,60] = MAX (
   sequential.linear_0.act[0,60] , 0 )
 sequential.relu_1.relu[(0,61)]: sequential.relu_1.act[0,61] = MAX (
   sequential.linear_0.act[0,61] , 0 )
 sequential.relu_1.relu[(0,62)]: sequential.relu_1.act[0,62] = MAX (
   sequential.linear_0.act[0,62] , 0 )
 sequential.relu_1.relu[(0,63)]: sequential.relu_1.act[0,63] = MAX (
   sequential.linear_0.act[0,63] , 0 )
 sequential.relu_1.relu[(0,64)]: sequential.relu_1.act[0,64] = MAX (
   sequential.linear_0.act[0,64] , 0 )
 sequential.relu_1.relu[(0,65)]: sequential.relu_1.act[0,65] = MAX (
   sequential.linear_0.act[0,65] , 0 )
 sequential.relu_1.relu[(0,66)]: sequential.relu_1.act[0,66] = MAX (
   sequential.linear_0.act[0,66] , 0 )
 sequential.relu_1.relu[(0,67)]: sequential.relu_1.act[0,67] = MAX (
   sequential.linear_0.act[0,67] , 0 )
 sequential.relu_1.relu[(0,68)]: sequential.relu_1.act[0,68] = MAX (
   sequential.linear_0.act[0,68] , 0 )
 sequential.relu_1.relu[(0,69)]: sequential.relu_1.act[0,69] = MAX (
   sequential.linear_0.act[0,69] , 0 )
 sequential.relu_1.relu[(0,70)]: sequential.relu_1.act[0,70] = MAX (
   sequential.linear_0.act[0,70] , 0 )
 sequential.relu_1.relu[(0,71)]: sequential.relu_1.act[0,71] = MAX (
   sequential.linear_0.act[0,71] , 0 )
 sequential.relu_1.relu[(0,72)]: sequential.relu_1.act[0,72] = MAX (
   sequential.linear_0.act[0,72] , 0 )
 sequential.relu_1.relu[(0,73)]: sequential.relu_1.act[0,73] = MAX (
   sequential.linear_0.act[0,73] , 0 )
 sequential.relu_1.relu[(0,74)]: sequential.relu_1.act[0,74] = MAX (
   sequential.linear_0.act[0,74] , 0 )
 sequential.relu_1.relu[(0,75)]: sequential.relu_1.act[0,75] = MAX (
   sequential.linear_0.act[0,75] , 0 )
 sequential.relu_1.relu[(0,76)]: sequential.relu_1.act[0,76] = MAX (
   sequential.linear_0.act[0,76] , 0 )
 sequential.relu_1.relu[(0,77)]: sequential.relu_1.act[0,77] = MAX (
   sequential.linear_0.act[0,77] , 0 )
 sequential.relu_1.relu[(0,78)]: sequential.relu_1.act[0,78] = MAX (
   sequential.linear_0.act[0,78] , 0 )
 sequential.relu_1.relu[(0,79)]: sequential.relu_1.act[0,79] = MAX (
   sequential.linear_0.act[0,79] , 0 )
 sequential.relu_1.relu[(0,80)]: sequential.relu_1.act[0,80] = MAX (
   sequential.linear_0.act[0,80] , 0 )
 sequential.relu_1.relu[(0,81)]: sequential.relu_1.act[0,81] = MAX (
   sequential.linear_0.act[0,81] , 0 )
 sequential.relu_1.relu[(0,82)]: sequential.relu_1.act[0,82] = MAX (
   sequential.linear_0.act[0,82] , 0 )
 sequential.relu_1.relu[(0,83)]: sequential.relu_1.act[0,83] = MAX (
   sequential.linear_0.act[0,83] , 0 )
 sequential.relu_1.relu[(0,84)]: sequential.relu_1.act[0,84] = MAX (
   sequential.linear_0.act[0,84] , 0 )
 sequential.relu_1.relu[(0,85)]: sequential.relu_1.act[0,85] = MAX (
   sequential.linear_0.act[0,85] , 0 )
 sequential.relu_1.relu[(0,86)]: sequential.relu_1.act[0,86] = MAX (
   sequential.linear_0.act[0,86] , 0 )
 sequential.relu_1.relu[(0,87)]: sequential.relu_1.act[0,87] = MAX (
   sequential.linear_0.act[0,87] , 0 )
 sequential.relu_1.relu[(0,88)]: sequential.relu_1.act[0,88] = MAX (
   sequential.linear_0.act[0,88] , 0 )
 sequential.relu_1.relu[(0,89)]: sequential.relu_1.act[0,89] = MAX (
   sequential.linear_0.act[0,89] , 0 )
 sequential.relu_1.relu[(0,90)]: sequential.relu_1.act[0,90] = MAX (
   sequential.linear_0.act[0,90] , 0 )
 sequential.relu_1.relu[(0,91)]: sequential.relu_1.act[0,91] = MAX (
   sequential.linear_0.act[0,91] , 0 )
 sequential.relu_1.relu[(0,92)]: sequential.relu_1.act[0,92] = MAX (
   sequential.linear_0.act[0,92] , 0 )
 sequential.relu_1.relu[(0,93)]: sequential.relu_1.act[0,93] = MAX (
   sequential.linear_0.act[0,93] , 0 )
 sequential.relu_1.relu[(0,94)]: sequential.relu_1.act[0,94] = MAX (
   sequential.linear_0.act[0,94] , 0 )
 sequential.relu_1.relu[(0,95)]: sequential.relu_1.act[0,95] = MAX (
   sequential.linear_0.act[0,95] , 0 )
 sequential.relu_1.relu[(0,96)]: sequential.relu_1.act[0,96] = MAX (
   sequential.linear_0.act[0,96] , 0 )
 sequential.relu_1.relu[(0,97)]: sequential.relu_1.act[0,97] = MAX (
   sequential.linear_0.act[0,97] , 0 )
 sequential.relu_1.relu[(0,98)]: sequential.relu_1.act[0,98] = MAX (
   sequential.linear_0.act[0,98] , 0 )
 sequential.relu_1.relu[(0,99)]: sequential.relu_1.act[0,99] = MAX (
   sequential.linear_0.act[0,99] , 0 )
 sequential.relu_1.relu[(0,100)]: sequential.relu_1.act[0,100] = MAX (
   sequential.linear_0.act[0,100] , 0 )
 sequential.relu_1.relu[(0,101)]: sequential.relu_1.act[0,101] = MAX (
   sequential.linear_0.act[0,101] , 0 )
 sequential.relu_1.relu[(0,102)]: sequential.relu_1.act[0,102] = MAX (
   sequential.linear_0.act[0,102] , 0 )
 sequential.relu_1.relu[(0,103)]: sequential.relu_1.act[0,103] = MAX (
   sequential.linear_0.act[0,103] , 0 )
 sequential.relu_1.relu[(0,104)]: sequential.relu_1.act[0,104] = MAX (
   sequential.linear_0.act[0,104] , 0 )
 sequential.relu_1.relu[(0,105)]: sequential.relu_1.act[0,105] = MAX (
   sequential.linear_0.act[0,105] , 0 )
 sequential.relu_1.relu[(0,106)]: sequential.relu_1.act[0,106] = MAX (
   sequential.linear_0.act[0,106] , 0 )
 sequential.relu_1.relu[(0,107)]: sequential.relu_1.act[0,107] = MAX (
   sequential.linear_0.act[0,107] , 0 )
 sequential.relu_1.relu[(0,108)]: sequential.relu_1.act[0,108] = MAX (
   sequential.linear_0.act[0,108] , 0 )
 sequential.relu_1.relu[(0,109)]: sequential.relu_1.act[0,109] = MAX (
   sequential.linear_0.act[0,109] , 0 )
 sequential.relu_1.relu[(0,110)]: sequential.relu_1.act[0,110] = MAX (
   sequential.linear_0.act[0,110] , 0 )
 sequential.relu_1.relu[(0,111)]: sequential.relu_1.act[0,111] = MAX (
   sequential.linear_0.act[0,111] , 0 )
 sequential.relu_1.relu[(0,112)]: sequential.relu_1.act[0,112] = MAX (
   sequential.linear_0.act[0,112] , 0 )
 sequential.relu_1.relu[(0,113)]: sequential.relu_1.act[0,113] = MAX (
   sequential.linear_0.act[0,113] , 0 )
 sequential.relu_1.relu[(0,114)]: sequential.relu_1.act[0,114] = MAX (
   sequential.linear_0.act[0,114] , 0 )
 sequential.relu_1.relu[(0,115)]: sequential.relu_1.act[0,115] = MAX (
   sequential.linear_0.act[0,115] , 0 )
 sequential.relu_1.relu[(0,116)]: sequential.relu_1.act[0,116] = MAX (
   sequential.linear_0.act[0,116] , 0 )
 sequential.relu_1.relu[(0,117)]: sequential.relu_1.act[0,117] = MAX (
   sequential.linear_0.act[0,117] , 0 )
 sequential.relu_1.relu[(0,118)]: sequential.relu_1.act[0,118] = MAX (
   sequential.linear_0.act[0,118] , 0 )
 sequential.relu_1.relu[(0,119)]: sequential.relu_1.act[0,119] = MAX (
   sequential.linear_0.act[0,119] , 0 )
 sequential.relu_1.relu[(0,120)]: sequential.relu_1.act[0,120] = MAX (
   sequential.linear_0.act[0,120] , 0 )
 sequential.relu_1.relu[(0,121)]: sequential.relu_1.act[0,121] = MAX (
   sequential.linear_0.act[0,121] , 0 )
 sequential.relu_1.relu[(0,122)]: sequential.relu_1.act[0,122] = MAX (
   sequential.linear_0.act[0,122] , 0 )
 sequential.relu_1.relu[(0,123)]: sequential.relu_1.act[0,123] = MAX (
   sequential.linear_0.act[0,123] , 0 )
 sequential.relu_1.relu[(0,124)]: sequential.relu_1.act[0,124] = MAX (
   sequential.linear_0.act[0,124] , 0 )
 sequential.relu_1.relu[(0,125)]: sequential.relu_1.act[0,125] = MAX (
   sequential.linear_0.act[0,125] , 0 )
 sequential.relu_1.relu[(0,126)]: sequential.relu_1.act[0,126] = MAX (
   sequential.linear_0.act[0,126] , 0 )
 sequential.relu_1.relu[(0,127)]: sequential.relu_1.act[0,127] = MAX (
   sequential.linear_0.act[0,127] , 0 )
 sequential0.relu_1.relu[(0,0)]: sequential0.relu_1.act[0,0] = MAX (
   sequential0.linear_0.act[0,0] , 0 )
 sequential0.relu_1.relu[(0,1)]: sequential0.relu_1.act[0,1] = MAX (
   sequential0.linear_0.act[0,1] , 0 )
 sequential0.relu_1.relu[(0,2)]: sequential0.relu_1.act[0,2] = MAX (
   sequential0.linear_0.act[0,2] , 0 )
 sequential0.relu_1.relu[(0,3)]: sequential0.relu_1.act[0,3] = MAX (
   sequential0.linear_0.act[0,3] , 0 )
 sequential0.relu_1.relu[(0,4)]: sequential0.relu_1.act[0,4] = MAX (
   sequential0.linear_0.act[0,4] , 0 )
 sequential0.relu_1.relu[(0,5)]: sequential0.relu_1.act[0,5] = MAX (
   sequential0.linear_0.act[0,5] , 0 )
 sequential0.relu_1.relu[(0,6)]: sequential0.relu_1.act[0,6] = MAX (
   sequential0.linear_0.act[0,6] , 0 )
 sequential0.relu_1.relu[(0,7)]: sequential0.relu_1.act[0,7] = MAX (
   sequential0.linear_0.act[0,7] , 0 )
 sequential0.relu_1.relu[(0,8)]: sequential0.relu_1.act[0,8] = MAX (
   sequential0.linear_0.act[0,8] , 0 )
 sequential0.relu_1.relu[(0,9)]: sequential0.relu_1.act[0,9] = MAX (
   sequential0.linear_0.act[0,9] , 0 )
 sequential0.relu_1.relu[(0,10)]: sequential0.relu_1.act[0,10] = MAX (
   sequential0.linear_0.act[0,10] , 0 )
 sequential0.relu_1.relu[(0,11)]: sequential0.relu_1.act[0,11] = MAX (
   sequential0.linear_0.act[0,11] , 0 )
 sequential0.relu_1.relu[(0,12)]: sequential0.relu_1.act[0,12] = MAX (
   sequential0.linear_0.act[0,12] , 0 )
 sequential0.relu_1.relu[(0,13)]: sequential0.relu_1.act[0,13] = MAX (
   sequential0.linear_0.act[0,13] , 0 )
 sequential0.relu_1.relu[(0,14)]: sequential0.relu_1.act[0,14] = MAX (
   sequential0.linear_0.act[0,14] , 0 )
 sequential0.relu_1.relu[(0,15)]: sequential0.relu_1.act[0,15] = MAX (
   sequential0.linear_0.act[0,15] , 0 )
 sequential0.relu_1.relu[(0,16)]: sequential0.relu_1.act[0,16] = MAX (
   sequential0.linear_0.act[0,16] , 0 )
 sequential0.relu_1.relu[(0,17)]: sequential0.relu_1.act[0,17] = MAX (
   sequential0.linear_0.act[0,17] , 0 )
 sequential0.relu_1.relu[(0,18)]: sequential0.relu_1.act[0,18] = MAX (
   sequential0.linear_0.act[0,18] , 0 )
 sequential0.relu_1.relu[(0,19)]: sequential0.relu_1.act[0,19] = MAX (
   sequential0.linear_0.act[0,19] , 0 )
 sequential0.relu_1.relu[(0,20)]: sequential0.relu_1.act[0,20] = MAX (
   sequential0.linear_0.act[0,20] , 0 )
 sequential0.relu_1.relu[(0,21)]: sequential0.relu_1.act[0,21] = MAX (
   sequential0.linear_0.act[0,21] , 0 )
 sequential0.relu_1.relu[(0,22)]: sequential0.relu_1.act[0,22] = MAX (
   sequential0.linear_0.act[0,22] , 0 )
 sequential0.relu_1.relu[(0,23)]: sequential0.relu_1.act[0,23] = MAX (
   sequential0.linear_0.act[0,23] , 0 )
 sequential0.relu_1.relu[(0,24)]: sequential0.relu_1.act[0,24] = MAX (
   sequential0.linear_0.act[0,24] , 0 )
 sequential0.relu_1.relu[(0,25)]: sequential0.relu_1.act[0,25] = MAX (
   sequential0.linear_0.act[0,25] , 0 )
 sequential0.relu_1.relu[(0,26)]: sequential0.relu_1.act[0,26] = MAX (
   sequential0.linear_0.act[0,26] , 0 )
 sequential0.relu_1.relu[(0,27)]: sequential0.relu_1.act[0,27] = MAX (
   sequential0.linear_0.act[0,27] , 0 )
 sequential0.relu_1.relu[(0,28)]: sequential0.relu_1.act[0,28] = MAX (
   sequential0.linear_0.act[0,28] , 0 )
 sequential0.relu_1.relu[(0,29)]: sequential0.relu_1.act[0,29] = MAX (
   sequential0.linear_0.act[0,29] , 0 )
 sequential0.relu_1.relu[(0,30)]: sequential0.relu_1.act[0,30] = MAX (
   sequential0.linear_0.act[0,30] , 0 )
 sequential0.relu_1.relu[(0,31)]: sequential0.relu_1.act[0,31] = MAX (
   sequential0.linear_0.act[0,31] , 0 )
 sequential0.relu_1.relu[(0,32)]: sequential0.relu_1.act[0,32] = MAX (
   sequential0.linear_0.act[0,32] , 0 )
 sequential0.relu_1.relu[(0,33)]: sequential0.relu_1.act[0,33] = MAX (
   sequential0.linear_0.act[0,33] , 0 )
 sequential0.relu_1.relu[(0,34)]: sequential0.relu_1.act[0,34] = MAX (
   sequential0.linear_0.act[0,34] , 0 )
 sequential0.relu_1.relu[(0,35)]: sequential0.relu_1.act[0,35] = MAX (
   sequential0.linear_0.act[0,35] , 0 )
 sequential0.relu_1.relu[(0,36)]: sequential0.relu_1.act[0,36] = MAX (
   sequential0.linear_0.act[0,36] , 0 )
 sequential0.relu_1.relu[(0,37)]: sequential0.relu_1.act[0,37] = MAX (
   sequential0.linear_0.act[0,37] , 0 )
 sequential0.relu_1.relu[(0,38)]: sequential0.relu_1.act[0,38] = MAX (
   sequential0.linear_0.act[0,38] , 0 )
 sequential0.relu_1.relu[(0,39)]: sequential0.relu_1.act[0,39] = MAX (
   sequential0.linear_0.act[0,39] , 0 )
 sequential0.relu_1.relu[(0,40)]: sequential0.relu_1.act[0,40] = MAX (
   sequential0.linear_0.act[0,40] , 0 )
 sequential0.relu_1.relu[(0,41)]: sequential0.relu_1.act[0,41] = MAX (
   sequential0.linear_0.act[0,41] , 0 )
 sequential0.relu_1.relu[(0,42)]: sequential0.relu_1.act[0,42] = MAX (
   sequential0.linear_0.act[0,42] , 0 )
 sequential0.relu_1.relu[(0,43)]: sequential0.relu_1.act[0,43] = MAX (
   sequential0.linear_0.act[0,43] , 0 )
 sequential0.relu_1.relu[(0,44)]: sequential0.relu_1.act[0,44] = MAX (
   sequential0.linear_0.act[0,44] , 0 )
 sequential0.relu_1.relu[(0,45)]: sequential0.relu_1.act[0,45] = MAX (
   sequential0.linear_0.act[0,45] , 0 )
 sequential0.relu_1.relu[(0,46)]: sequential0.relu_1.act[0,46] = MAX (
   sequential0.linear_0.act[0,46] , 0 )
 sequential0.relu_1.relu[(0,47)]: sequential0.relu_1.act[0,47] = MAX (
   sequential0.linear_0.act[0,47] , 0 )
 sequential0.relu_1.relu[(0,48)]: sequential0.relu_1.act[0,48] = MAX (
   sequential0.linear_0.act[0,48] , 0 )
 sequential0.relu_1.relu[(0,49)]: sequential0.relu_1.act[0,49] = MAX (
   sequential0.linear_0.act[0,49] , 0 )
 sequential0.relu_1.relu[(0,50)]: sequential0.relu_1.act[0,50] = MAX (
   sequential0.linear_0.act[0,50] , 0 )
 sequential0.relu_1.relu[(0,51)]: sequential0.relu_1.act[0,51] = MAX (
   sequential0.linear_0.act[0,51] , 0 )
 sequential0.relu_1.relu[(0,52)]: sequential0.relu_1.act[0,52] = MAX (
   sequential0.linear_0.act[0,52] , 0 )
 sequential0.relu_1.relu[(0,53)]: sequential0.relu_1.act[0,53] = MAX (
   sequential0.linear_0.act[0,53] , 0 )
 sequential0.relu_1.relu[(0,54)]: sequential0.relu_1.act[0,54] = MAX (
   sequential0.linear_0.act[0,54] , 0 )
 sequential0.relu_1.relu[(0,55)]: sequential0.relu_1.act[0,55] = MAX (
   sequential0.linear_0.act[0,55] , 0 )
 sequential0.relu_1.relu[(0,56)]: sequential0.relu_1.act[0,56] = MAX (
   sequential0.linear_0.act[0,56] , 0 )
 sequential0.relu_1.relu[(0,57)]: sequential0.relu_1.act[0,57] = MAX (
   sequential0.linear_0.act[0,57] , 0 )
 sequential0.relu_1.relu[(0,58)]: sequential0.relu_1.act[0,58] = MAX (
   sequential0.linear_0.act[0,58] , 0 )
 sequential0.relu_1.relu[(0,59)]: sequential0.relu_1.act[0,59] = MAX (
   sequential0.linear_0.act[0,59] , 0 )
 sequential0.relu_1.relu[(0,60)]: sequential0.relu_1.act[0,60] = MAX (
   sequential0.linear_0.act[0,60] , 0 )
 sequential0.relu_1.relu[(0,61)]: sequential0.relu_1.act[0,61] = MAX (
   sequential0.linear_0.act[0,61] , 0 )
 sequential0.relu_1.relu[(0,62)]: sequential0.relu_1.act[0,62] = MAX (
   sequential0.linear_0.act[0,62] , 0 )
 sequential0.relu_1.relu[(0,63)]: sequential0.relu_1.act[0,63] = MAX (
   sequential0.linear_0.act[0,63] , 0 )
 sequential0.relu_1.relu[(0,64)]: sequential0.relu_1.act[0,64] = MAX (
   sequential0.linear_0.act[0,64] , 0 )
 sequential0.relu_1.relu[(0,65)]: sequential0.relu_1.act[0,65] = MAX (
   sequential0.linear_0.act[0,65] , 0 )
 sequential0.relu_1.relu[(0,66)]: sequential0.relu_1.act[0,66] = MAX (
   sequential0.linear_0.act[0,66] , 0 )
 sequential0.relu_1.relu[(0,67)]: sequential0.relu_1.act[0,67] = MAX (
   sequential0.linear_0.act[0,67] , 0 )
 sequential0.relu_1.relu[(0,68)]: sequential0.relu_1.act[0,68] = MAX (
   sequential0.linear_0.act[0,68] , 0 )
 sequential0.relu_1.relu[(0,69)]: sequential0.relu_1.act[0,69] = MAX (
   sequential0.linear_0.act[0,69] , 0 )
 sequential0.relu_1.relu[(0,70)]: sequential0.relu_1.act[0,70] = MAX (
   sequential0.linear_0.act[0,70] , 0 )
 sequential0.relu_1.relu[(0,71)]: sequential0.relu_1.act[0,71] = MAX (
   sequential0.linear_0.act[0,71] , 0 )
 sequential0.relu_1.relu[(0,72)]: sequential0.relu_1.act[0,72] = MAX (
   sequential0.linear_0.act[0,72] , 0 )
 sequential0.relu_1.relu[(0,73)]: sequential0.relu_1.act[0,73] = MAX (
   sequential0.linear_0.act[0,73] , 0 )
 sequential0.relu_1.relu[(0,74)]: sequential0.relu_1.act[0,74] = MAX (
   sequential0.linear_0.act[0,74] , 0 )
 sequential0.relu_1.relu[(0,75)]: sequential0.relu_1.act[0,75] = MAX (
   sequential0.linear_0.act[0,75] , 0 )
 sequential0.relu_1.relu[(0,76)]: sequential0.relu_1.act[0,76] = MAX (
   sequential0.linear_0.act[0,76] , 0 )
 sequential0.relu_1.relu[(0,77)]: sequential0.relu_1.act[0,77] = MAX (
   sequential0.linear_0.act[0,77] , 0 )
 sequential0.relu_1.relu[(0,78)]: sequential0.relu_1.act[0,78] = MAX (
   sequential0.linear_0.act[0,78] , 0 )
 sequential0.relu_1.relu[(0,79)]: sequential0.relu_1.act[0,79] = MAX (
   sequential0.linear_0.act[0,79] , 0 )
 sequential0.relu_1.relu[(0,80)]: sequential0.relu_1.act[0,80] = MAX (
   sequential0.linear_0.act[0,80] , 0 )
 sequential0.relu_1.relu[(0,81)]: sequential0.relu_1.act[0,81] = MAX (
   sequential0.linear_0.act[0,81] , 0 )
 sequential0.relu_1.relu[(0,82)]: sequential0.relu_1.act[0,82] = MAX (
   sequential0.linear_0.act[0,82] , 0 )
 sequential0.relu_1.relu[(0,83)]: sequential0.relu_1.act[0,83] = MAX (
   sequential0.linear_0.act[0,83] , 0 )
 sequential0.relu_1.relu[(0,84)]: sequential0.relu_1.act[0,84] = MAX (
   sequential0.linear_0.act[0,84] , 0 )
 sequential0.relu_1.relu[(0,85)]: sequential0.relu_1.act[0,85] = MAX (
   sequential0.linear_0.act[0,85] , 0 )
 sequential0.relu_1.relu[(0,86)]: sequential0.relu_1.act[0,86] = MAX (
   sequential0.linear_0.act[0,86] , 0 )
 sequential0.relu_1.relu[(0,87)]: sequential0.relu_1.act[0,87] = MAX (
   sequential0.linear_0.act[0,87] , 0 )
 sequential0.relu_1.relu[(0,88)]: sequential0.relu_1.act[0,88] = MAX (
   sequential0.linear_0.act[0,88] , 0 )
 sequential0.relu_1.relu[(0,89)]: sequential0.relu_1.act[0,89] = MAX (
   sequential0.linear_0.act[0,89] , 0 )
 sequential0.relu_1.relu[(0,90)]: sequential0.relu_1.act[0,90] = MAX (
   sequential0.linear_0.act[0,90] , 0 )
 sequential0.relu_1.relu[(0,91)]: sequential0.relu_1.act[0,91] = MAX (
   sequential0.linear_0.act[0,91] , 0 )
 sequential0.relu_1.relu[(0,92)]: sequential0.relu_1.act[0,92] = MAX (
   sequential0.linear_0.act[0,92] , 0 )
 sequential0.relu_1.relu[(0,93)]: sequential0.relu_1.act[0,93] = MAX (
   sequential0.linear_0.act[0,93] , 0 )
 sequential0.relu_1.relu[(0,94)]: sequential0.relu_1.act[0,94] = MAX (
   sequential0.linear_0.act[0,94] , 0 )
 sequential0.relu_1.relu[(0,95)]: sequential0.relu_1.act[0,95] = MAX (
   sequential0.linear_0.act[0,95] , 0 )
 sequential0.relu_1.relu[(0,96)]: sequential0.relu_1.act[0,96] = MAX (
   sequential0.linear_0.act[0,96] , 0 )
 sequential0.relu_1.relu[(0,97)]: sequential0.relu_1.act[0,97] = MAX (
   sequential0.linear_0.act[0,97] , 0 )
 sequential0.relu_1.relu[(0,98)]: sequential0.relu_1.act[0,98] = MAX (
   sequential0.linear_0.act[0,98] , 0 )
 sequential0.relu_1.relu[(0,99)]: sequential0.relu_1.act[0,99] = MAX (
   sequential0.linear_0.act[0,99] , 0 )
 sequential0.relu_1.relu[(0,100)]: sequential0.relu_1.act[0,100] = MAX (
   sequential0.linear_0.act[0,100] , 0 )
 sequential0.relu_1.relu[(0,101)]: sequential0.relu_1.act[0,101] = MAX (
   sequential0.linear_0.act[0,101] , 0 )
 sequential0.relu_1.relu[(0,102)]: sequential0.relu_1.act[0,102] = MAX (
   sequential0.linear_0.act[0,102] , 0 )
 sequential0.relu_1.relu[(0,103)]: sequential0.relu_1.act[0,103] = MAX (
   sequential0.linear_0.act[0,103] , 0 )
 sequential0.relu_1.relu[(0,104)]: sequential0.relu_1.act[0,104] = MAX (
   sequential0.linear_0.act[0,104] , 0 )
 sequential0.relu_1.relu[(0,105)]: sequential0.relu_1.act[0,105] = MAX (
   sequential0.linear_0.act[0,105] , 0 )
 sequential0.relu_1.relu[(0,106)]: sequential0.relu_1.act[0,106] = MAX (
   sequential0.linear_0.act[0,106] , 0 )
 sequential0.relu_1.relu[(0,107)]: sequential0.relu_1.act[0,107] = MAX (
   sequential0.linear_0.act[0,107] , 0 )
 sequential0.relu_1.relu[(0,108)]: sequential0.relu_1.act[0,108] = MAX (
   sequential0.linear_0.act[0,108] , 0 )
 sequential0.relu_1.relu[(0,109)]: sequential0.relu_1.act[0,109] = MAX (
   sequential0.linear_0.act[0,109] , 0 )
 sequential0.relu_1.relu[(0,110)]: sequential0.relu_1.act[0,110] = MAX (
   sequential0.linear_0.act[0,110] , 0 )
 sequential0.relu_1.relu[(0,111)]: sequential0.relu_1.act[0,111] = MAX (
   sequential0.linear_0.act[0,111] , 0 )
 sequential0.relu_1.relu[(0,112)]: sequential0.relu_1.act[0,112] = MAX (
   sequential0.linear_0.act[0,112] , 0 )
 sequential0.relu_1.relu[(0,113)]: sequential0.relu_1.act[0,113] = MAX (
   sequential0.linear_0.act[0,113] , 0 )
 sequential0.relu_1.relu[(0,114)]: sequential0.relu_1.act[0,114] = MAX (
   sequential0.linear_0.act[0,114] , 0 )
 sequential0.relu_1.relu[(0,115)]: sequential0.relu_1.act[0,115] = MAX (
   sequential0.linear_0.act[0,115] , 0 )
 sequential0.relu_1.relu[(0,116)]: sequential0.relu_1.act[0,116] = MAX (
   sequential0.linear_0.act[0,116] , 0 )
 sequential0.relu_1.relu[(0,117)]: sequential0.relu_1.act[0,117] = MAX (
   sequential0.linear_0.act[0,117] , 0 )
 sequential0.relu_1.relu[(0,118)]: sequential0.relu_1.act[0,118] = MAX (
   sequential0.linear_0.act[0,118] , 0 )
 sequential0.relu_1.relu[(0,119)]: sequential0.relu_1.act[0,119] = MAX (
   sequential0.linear_0.act[0,119] , 0 )
 sequential0.relu_1.relu[(0,120)]: sequential0.relu_1.act[0,120] = MAX (
   sequential0.linear_0.act[0,120] , 0 )
 sequential0.relu_1.relu[(0,121)]: sequential0.relu_1.act[0,121] = MAX (
   sequential0.linear_0.act[0,121] , 0 )
 sequential0.relu_1.relu[(0,122)]: sequential0.relu_1.act[0,122] = MAX (
   sequential0.linear_0.act[0,122] , 0 )
 sequential0.relu_1.relu[(0,123)]: sequential0.relu_1.act[0,123] = MAX (
   sequential0.linear_0.act[0,123] , 0 )
 sequential0.relu_1.relu[(0,124)]: sequential0.relu_1.act[0,124] = MAX (
   sequential0.linear_0.act[0,124] , 0 )
 sequential0.relu_1.relu[(0,125)]: sequential0.relu_1.act[0,125] = MAX (
   sequential0.linear_0.act[0,125] , 0 )
 sequential0.relu_1.relu[(0,126)]: sequential0.relu_1.act[0,126] = MAX (
   sequential0.linear_0.act[0,126] , 0 )
 sequential0.relu_1.relu[(0,127)]: sequential0.relu_1.act[0,127] = MAX (
   sequential0.linear_0.act[0,127] , 0 )
End
