\ Model ilp
\ LP format - for model browsing. Use MPS format to capture full model detail.
\ Signature: 0x89b1dab60e4db5bf
Maximize
  objective
Subject To
 pstg_entry_node: N0 = 1
 pstg_entry_edge: N0->N1(0) = 1
 pstg_exit_edges: N31->N39(32) + N32->N40(31) = 1
 pstg_inflow_N1: N0->N1(0) - N1 = 0
 pstg_inflow_N2: - N2 + N10->N2(8) = 0
 pstg_inflow_N3: N11->N3(4) - N3 = 0
 pstg_inflow_N4: N15->N4(23) - N4 = 0
 pstg_inflow_N5: - N5 + N16->N5(19) = 0
 pstg_inflow_N6: - N6 + N13->N6(40) = 0
 pstg_inflow_N7: - N7 + N14->N7(52) = 0
 pstg_inflow_N8: N19->N8(44) - N8 = 0
 pstg_inflow_N9: - N9 + N20->N9(56) = 0
 pstg_inflow_N10: N12->N10(7) + N23->N10(47) - N10 = 0
 pstg_inflow_N11: N24->N11(59) - N11 + N12->N11(6) + N1->N11(1) = 0
 pstg_inflow_N12: N1->N12(2) - N12 = 0
 pstg_inflow_N13: - N13 + N2->N13(11) + N6->N13(42) = 0
 pstg_inflow_N14: - N14 + N7->N14(54) + N3->N14(49) = 0
 pstg_inflow_N15: N17->N15(39) - N15 + N18->N15(22) + N35->N15(33)
   + N25->N15(12) = 0
 pstg_inflow_N16: N36->N16(37) - N16 + N26->N16(16) + N17->N16(38)
   + N18->N16(21) = 0
 pstg_inflow_N17: N25->N17(13) - N17 = 0
 pstg_inflow_N18: - N18 + N26->N18(17) = 0
 pstg_inflow_N19: N37->N19(48) + N21->N19(43) - N19 = 0
 pstg_inflow_N20: N22->N20(55) - N20 + N38->N20(60) = 0
 pstg_inflow_N21: - N21 + N13->N21(41) = 0
 pstg_inflow_N22: N14->N22(53) - N22 = 0
 pstg_inflow_N23: - N23 + N19->N23(45) = 0
 pstg_inflow_N24: N20->N24(57) - N24 = 0
 pstg_inflow_N25: - N25 + N28->N25(50) + N10->N25(9) + N27->N25(14) = 0
 pstg_inflow_N26: N27->N26(15) - N26 + N11->N26(3) + N28->N26(51) = 0
 pstg_inflow_N27: - N27 + N10->N27(10) = 0
 pstg_inflow_N28: - N28 + N11->N28(5) = 0
 pstg_inflow_N29: - N29 + N15->N29(24) + N33->N29(28) + N34->N29(35) = 0
 pstg_inflow_N30: - N30 + N16->N30(18) + N34->N30(36) + N33->N30(29) = 0
 pstg_inflow_N31: N29->N31(27) - N31 = 0
 pstg_inflow_N32: - N32 + N30->N32(30) = 0
 pstg_inflow_N33: N15->N33(25) - N33 = 0
 pstg_inflow_N34: - N34 + N16->N34(20) = 0
 pstg_inflow_N35: N4->N35(26) - N35 = 0
 pstg_inflow_N36: N5->N36(34) - N36 = 0
 pstg_inflow_N37: N8->N37(46) - N37 = 0
 pstg_inflow_N38: - N38 + N9->N38(58) = 0
 pstg_inflow_N39: - N39 + N31->N39(32) = 0
 pstg_inflow_N40: N32->N40(31) - N40 = 0
 pstg-time: 1500 N21 + 56 N30 + 102000 N12->N10(7) + 89000 N5 + 68 N14
   + 3000 N23 + 56 N32 + 118 N7 + 20000 N17->N15(39) + 68 N16
   + 2.0631e+07 N25 + 89000 N9 + 102000 N28->N25(50) + 1500 N2
   - global-timing + 68 N11 + 68 N20 + 110000 N4 + 1501 N34->N30(36)
   + 2750 N13 + 37 N22 + 22000 N33->N30(29) + 4750 N6 + 22000 N17->N16(38)
   + 2750 N15 + 56 N36 + 102000 N18->N15(22) + 110000 N8 + 2250 N29
   + 56 N38 + 1501 N12->N11(6) + 22000 N27->N26(15) + 93 N1 + 2250 N31
   + 75 N24 + 20000 N33->N29(28) + 515775 N26 + 2250 N35
   + 1501 N18->N16(21) + 2750 N10 + 2750 N19 + 1501 N28->N26(51) + 2250 N37
   + 20000 N27->N25(14) + 37 N3 + 102000 N34->N29(35) = 0
 pstg_tc_0: - N0->N1(0) + N1->N12(2) + N1->N11(1) = 0
 pstg_tc_1: N2->N13(11) - N10->N2(8) = 0
 pstg_tc_2: - N11->N3(4) + N3->N14(49) = 0
 pstg_tc_3: - N15->N4(23) + N4->N35(26) = 0
 pstg_tc_4: N5->N36(34) - N16->N5(19) = 0
 pstg_tc_5: - N13->N6(40) + N6->N13(42) = 0
 pstg_tc_6: - N14->N7(52) + N7->N14(54) = 0
 pstg_tc_7: - N19->N8(44) + N8->N37(46) = 0
 pstg_tc_8: - N20->N9(56) + N9->N38(58) = 0
 pstg_tc_9: - N12->N10(7) + N10->N25(9) - N23->N10(47) + N10->N2(8)
   + N10->N27(10) = 0
 pstg_tc_10: - N24->N11(59) + N11->N3(4) - N12->N11(6) - N1->N11(1)
   + N11->N26(3) + N11->N28(5) = 0
 pstg_tc_11: N12->N10(7) - N1->N12(2) + N12->N11(6) = 0
 pstg_tc_12: N13->N21(41) - N2->N13(11) + N13->N6(40) - N6->N13(42) = 0
 pstg_tc_13: N14->N22(53) + N14->N7(52) - N7->N14(54) - N3->N14(49) = 0
 pstg_tc_14: - N17->N15(39) + N15->N4(23) + N15->N33(25) - N18->N15(22)
   + N15->N29(24) - N35->N15(33) - N25->N15(12) = 0
 pstg_tc_15: - N36->N16(37) - N26->N16(16) + N16->N30(18) + N16->N34(20)
   - N17->N16(38) + N16->N5(19) - N18->N16(21) = 0
 pstg_tc_16: N17->N15(39) + N17->N16(38) - N25->N17(13) = 0
 pstg_tc_17: N18->N15(22) - N26->N18(17) + N18->N16(21) = 0
 pstg_tc_18: N19->N8(44) - N37->N19(48) - N21->N19(43) + N19->N23(45) = 0
 pstg_tc_19: - N22->N20(55) + N20->N24(57) + N20->N9(56) - N38->N20(60)
   = 0
 pstg_tc_20: - N13->N21(41) + N21->N19(43) = 0
 pstg_tc_21: - N14->N22(53) + N22->N20(55) = 0
 pstg_tc_22: - N19->N23(45) + N23->N10(47) = 0
 pstg_tc_23: - N20->N24(57) + N24->N11(59) = 0
 pstg_tc_24: - N28->N25(50) - N10->N25(9) + N25->N17(13) + N25->N15(12)
   - N27->N25(14) = 0
 pstg_tc_25: N26->N16(16) - N27->N26(15) + N26->N18(17) - N11->N26(3)
   - N28->N26(51) = 0
 pstg_tc_26: N27->N26(15) - N10->N27(10) + N27->N25(14) = 0
 pstg_tc_27: N28->N25(50) + N28->N26(51) - N11->N28(5) = 0
 pstg_tc_28: N29->N31(27) - N15->N29(24) - N33->N29(28) - N34->N29(35) = 0
 pstg_tc_29: N30->N32(30) - N16->N30(18) - N34->N30(36) - N33->N30(29) = 0
 pstg_tc_30: N31->N39(32) - N29->N31(27) = 0
 pstg_tc_31: - N30->N32(30) + N32->N40(31) = 0
 pstg_tc_32: - N15->N33(25) + N33->N30(29) + N33->N29(28) = 0
 pstg_tc_33: N34->N30(36) - N16->N34(20) + N34->N29(35) = 0
 pstg_tc_34: N35->N15(33) - N4->N35(26) = 0
 pstg_tc_35: N36->N16(37) - N5->N36(34) = 0
 pstg_tc_36: - N8->N37(46) + N37->N19(48) = 0
 pstg_tc_37: - N9->N38(58) + N38->N20(60) = 0
 pstg_loop_constraint_0: N19->N8(44) - 1e+06 N12->N10(7) + N8->N37(46)
   + N17->N15(39) + N37->N19(48) + N15->N4(23) + N31->N39(32)
   + N13->N21(41) - 1e+06 N28->N25(50) + N15->N33(25) + N21->N19(43)
   + N10->N25(9) + N29->N31(27) + N19->N23(45) + N2->N13(11) + N23->N10(47)
   + N25->N17(13) - 1e+06 N18->N15(22) + N13->N6(40) + N15->N29(24)
   + N35->N15(33) + N10->N2(8) + N4->N35(26) + N10->N27(10) + N33->N29(28)
   + N25->N15(12) + N6->N13(42) + N27->N25(14) - 1e+06 N34->N29(35) <= 0
 pstg_loop_constraint_1: N37->N19(48) - 1e+06 N21->N19(43) <= 0
 pstg_loop_constraint_2: - 1e+06 N22->N20(55) + N38->N20(60) <= 0
 pstg_loop_constraint_3: - 1e+06 N2->N13(11) + N6->N13(42) <= 0
 pstg_loop_constraint_4: N7->N14(54) - 1e+06 N3->N14(49) <= 0
 pstg_loop_constraint_5: N36->N16(37) - 1e+06 N26->N16(16)
   - 1e+06 N17->N16(38) - 1e+06 N18->N16(21) <= 0
 pstg_loop_constraint_6: - 1e+06 N17->N15(39) - 1e+06 N18->N15(22)
   + N35->N15(33) - 1e+06 N25->N15(12) <= 0
 pstg_loop_constraint_7: N24->N11(59) - 1e+06 N12->N11(6)
   - 1e+06 N1->N11(1) <= 0
 pstg_loop_constraint_8: - 1e+06 N12->N10(7) + N23->N10(47) <= 0
 pstg_upper_bound_0: - 900 N22->N20(55) + N37->N19(48) - 900 N21->N19(43)
   + N38->N20(60) <= 0
 pstg_upper_bound_1: - 2500 N2->N13(11) + N7->N14(54) - 2500 N3->N14(49)
   + N6->N13(42) <= 0
 pstg_upper_bound_2: N36->N16(37) - 900 N17->N15(39) - 900 N26->N16(16)
   - 900 N17->N16(38) - 900 N18->N15(22) + N35->N15(33) - 900 N25->N15(12)
   - 900 N18->N16(21) <= 0
 pstg_upper_bound_3: - 10 N12->N10(7) + N24->N11(59) + N23->N10(47)
   - 10 N12->N11(6) - 10 N1->N11(1) <= 0
 cc_alt_cstr_0: - cc_alt_vars_0 + N1->N11(1) = 0
 cc_alt_cstr_1: N12->N11(6) - cc_alt_vars_1 = 0
 cc_alt_cstr_2: N12->N10(7) - cc_alt_vars_2 = 0
 cc_alt_cstr_3: - cc_alt_vars_3 + N26->N16(16) + N25->N15(12) = 0
 cc_alt_cstr_4: N17->N16(38) - cc_alt_vars_4 + N18->N16(21) = 0
 cc_alt_cstr_5: N17->N15(39) + N18->N15(22) - cc_alt_vars_5 = 0
 cc_alt_cstr_6: N10->N25(9) - cc_alt_vars_6 + N11->N26(3) = 0
 cc_alt_cstr_7: N27->N26(15) - cc_alt_vars_7 + N28->N26(51) = 0
 cc_alt_cstr_8: N28->N25(50) - cc_alt_vars_8 + N27->N25(14) = 0
 cc_alt_cstr_9: N16->N30(18) - cc_alt_vars_9 + N15->N29(24) = 0
 cc_alt_cstr_10: - cc_alt_vars_10 + N34->N30(36) + N33->N30(29) = 0
 cc_alt_cstr_11: N33->N29(28) - cc_alt_vars_11 + N34->N29(35) = 0
 objective_constraint: - 42.7245 N21 - 5.916288 N30
   - 5826.130962 N12->N10(7) - 8182.438034 N5 - 7.184064 N14 - 85.449 N23
   - 5.916288 N32 - 12.466464 N7 - 493.52632 N17->N15(39) - 7.184064 N16
   - 587632.773 N25 - 8182.438034 N9 - 5826.130962 N28->N25(50)
   - 42.7245 N2 - 7.184064 N11 - 7.184064 N20 - 2731.54299 N4
   - 307.800304494 N34->N30(36) - 78.32825 N13 - 3.908976 N22
   - 617.54 N33->N30(29) - 135.29425 N6 - 617.54 N17->N16(38)
   - 78.32825 N15 - 5.916288 N36 - 5826.130962 N18->N15(22) - 2731.54299 N8
   - 64.08674999999999 N29 - 5.916288 N38 - 307.800304494 N12->N11(6)
   - 617.54 N27->N26(15) - 9.825264000000001 N1 - 64.08674999999999 N31
   - 7.9236 N24 - 493.52632 N33->N29(28) - 54490.5972 N26
   - 64.08674999999999 N35 - 307.800304494 N18->N16(21) - 78.32825 N10
   - 78.32825 N19 - 307.800304494 N28->N26(51) - 64.08674999999999 N37
   - 493.52632 N27->N25(14) - 3.908976 N3 - 5826.130962 N34->N29(35)
   + objective = 0
Bounds
Generals
 N19->N8(44) N21 N14->N22(53) N30 N39 N12->N10(7) N5 N36->N16(37) N14
 N8->N37(46) N23 N22->N20(55) N32 N0->N1(0) cc_alt_vars_3 cc_alt_vars_0
 N30->N32(30) N7 N17->N15(39) N16 N37->N19(48) N25 N20->N24(57) N34
 N1->N12(2) N15->N4(23) N0 N31->N39(32) N9 N13->N21(41) N18 cc_alt_vars_10
 N28->N25(50) N27 N24->N11(59) N26->N16(16) N15->N33(25) N2 global-timing
 N5->N36(34) N11 N21->N19(43) N20 N14->N7(52) N10->N25(9) N16->N30(18)
 N29->N31(27) N4 N34->N30(36) N13 N19->N23(45) N22 N2->N13(11) N16->N34(20)
 N33->N30(29) N6 N17->N16(38) N15 N23->N10(47) N36 N11->N3(4) N25->N17(13)
 N18->N15(22) N32->N40(31) N8 N13->N6(40) cc_alt_vars_5 N29 N38 N12->N11(6)
 N27->N26(15) cc_alt_vars_9 N15->N29(24) N1 cc_alt_vars_2 N35->N15(33)
 cc_alt_vars_7 N7->N14(54) N31 N40 N10->N2(8) N26->N18(17) N4->N35(26) N24
 N20->N9(56) N33 N1->N11(1) N10->N27(10) cc_alt_vars_6 N16->N5(19)
 N33->N29(28) cc_alt_vars_1 N17 cc_alt_vars_4 N3->N14(49) N26 N9->N38(58)
 N35 N11->N26(3) N25->N15(12) N18->N16(21) cc_alt_vars_8 N10 N6->N13(42)
 N19 N28->N26(51) N28 N38->N20(60) N37 N11->N28(5) cc_alt_vars_11
 N27->N25(14) N3 N34->N29(35) N12
Scenario 0
Bounds
 cc_alt_vars_10 <= 0
 cc_alt_vars_5 <= 0
 cc_alt_vars_2 <= 0
 cc_alt_vars_7 <= 0
 cc_alt_vars_1 <= 0
 cc_alt_vars_4 <= 0
 cc_alt_vars_8 <= 0
 cc_alt_vars_11 <= 0
Scenario 1
Bounds
 cc_alt_vars_0 <= 0
 cc_alt_vars_10 <= 0
 cc_alt_vars_5 <= 0
 cc_alt_vars_2 <= 0
 cc_alt_vars_7 <= 0
 cc_alt_vars_4 <= 0
 cc_alt_vars_8 <= 0
 cc_alt_vars_11 <= 0
Scenario 2
Bounds
 cc_alt_vars_0 <= 0
 cc_alt_vars_10 <= 0
 cc_alt_vars_5 <= 0
 cc_alt_vars_7 <= 0
 cc_alt_vars_1 <= 0
 cc_alt_vars_4 <= 0
 cc_alt_vars_8 <= 0
 cc_alt_vars_11 <= 0
Scenario 3
Bounds
 cc_alt_vars_3 <= 0
 cc_alt_vars_10 <= 0
 cc_alt_vars_5 <= 0
 cc_alt_vars_2 <= 0
 cc_alt_vars_7 <= 0
 cc_alt_vars_1 <= 0
 cc_alt_vars_8 <= 0
 cc_alt_vars_11 <= 0
Scenario 4
Bounds
 cc_alt_vars_3 <= 0
 cc_alt_vars_0 <= 0
 cc_alt_vars_10 <= 0
 cc_alt_vars_5 <= 0
 cc_alt_vars_2 <= 0
 cc_alt_vars_7 <= 0
 cc_alt_vars_8 <= 0
 cc_alt_vars_11 <= 0
Scenario 5
Bounds
 cc_alt_vars_3 <= 0
 cc_alt_vars_0 <= 0
 cc_alt_vars_10 <= 0
 cc_alt_vars_5 <= 0
 cc_alt_vars_7 <= 0
 cc_alt_vars_1 <= 0
 cc_alt_vars_8 <= 0
 cc_alt_vars_11 <= 0
Scenario 6
Bounds
 cc_alt_vars_3 <= 0
 cc_alt_vars_10 <= 0
 cc_alt_vars_2 <= 0
 cc_alt_vars_7 <= 0
 cc_alt_vars_1 <= 0
 cc_alt_vars_4 <= 0
 cc_alt_vars_8 <= 0
 cc_alt_vars_11 <= 0
Scenario 7
Bounds
 cc_alt_vars_3 <= 0
 cc_alt_vars_0 <= 0
 cc_alt_vars_10 <= 0
 cc_alt_vars_2 <= 0
 cc_alt_vars_7 <= 0
 cc_alt_vars_4 <= 0
 cc_alt_vars_8 <= 0
 cc_alt_vars_11 <= 0
Scenario 8
Bounds
 cc_alt_vars_3 <= 0
 cc_alt_vars_0 <= 0
 cc_alt_vars_10 <= 0
 cc_alt_vars_7 <= 0
 cc_alt_vars_1 <= 0
 cc_alt_vars_4 <= 0
 cc_alt_vars_8 <= 0
 cc_alt_vars_11 <= 0
Scenario 9
Bounds
 cc_alt_vars_10 <= 0
 cc_alt_vars_5 <= 0
 cc_alt_vars_2 <= 0
 cc_alt_vars_6 <= 0
 cc_alt_vars_1 <= 0
 cc_alt_vars_4 <= 0
 cc_alt_vars_8 <= 0
 cc_alt_vars_11 <= 0
Scenario 10
Bounds
 cc_alt_vars_0 <= 0
 cc_alt_vars_10 <= 0
 cc_alt_vars_5 <= 0
 cc_alt_vars_2 <= 0
 cc_alt_vars_6 <= 0
 cc_alt_vars_4 <= 0
 cc_alt_vars_8 <= 0
 cc_alt_vars_11 <= 0
Scenario 11
Bounds
 cc_alt_vars_0 <= 0
 cc_alt_vars_10 <= 0
 cc_alt_vars_5 <= 0
 cc_alt_vars_6 <= 0
 cc_alt_vars_1 <= 0
 cc_alt_vars_4 <= 0
 cc_alt_vars_8 <= 0
 cc_alt_vars_11 <= 0
Scenario 12
Bounds
 cc_alt_vars_3 <= 0
 cc_alt_vars_10 <= 0
 cc_alt_vars_5 <= 0
 cc_alt_vars_2 <= 0
 cc_alt_vars_6 <= 0
 cc_alt_vars_1 <= 0
 cc_alt_vars_8 <= 0
 cc_alt_vars_11 <= 0
Scenario 13
Bounds
 cc_alt_vars_3 <= 0
 cc_alt_vars_0 <= 0
 cc_alt_vars_10 <= 0
 cc_alt_vars_5 <= 0
 cc_alt_vars_2 <= 0
 cc_alt_vars_6 <= 0
 cc_alt_vars_8 <= 0
 cc_alt_vars_11 <= 0
Scenario 14
Bounds
 cc_alt_vars_3 <= 0
 cc_alt_vars_0 <= 0
 cc_alt_vars_10 <= 0
 cc_alt_vars_5 <= 0
 cc_alt_vars_6 <= 0
 cc_alt_vars_1 <= 0
 cc_alt_vars_8 <= 0
 cc_alt_vars_11 <= 0
Scenario 15
Bounds
 cc_alt_vars_3 <= 0
 cc_alt_vars_10 <= 0
 cc_alt_vars_2 <= 0
 cc_alt_vars_6 <= 0
 cc_alt_vars_1 <= 0
 cc_alt_vars_4 <= 0
 cc_alt_vars_8 <= 0
 cc_alt_vars_11 <= 0
Scenario 16
Bounds
 cc_alt_vars_3 <= 0
 cc_alt_vars_0 <= 0
 cc_alt_vars_10 <= 0
 cc_alt_vars_2 <= 0
 cc_alt_vars_6 <= 0
 cc_alt_vars_4 <= 0
 cc_alt_vars_8 <= 0
 cc_alt_vars_11 <= 0
Scenario 17
Bounds
 cc_alt_vars_3 <= 0
 cc_alt_vars_0 <= 0
 cc_alt_vars_10 <= 0
 cc_alt_vars_6 <= 0
 cc_alt_vars_1 <= 0
 cc_alt_vars_4 <= 0
 cc_alt_vars_8 <= 0
 cc_alt_vars_11 <= 0
Scenario 18
Bounds
 cc_alt_vars_10 <= 0
 cc_alt_vars_5 <= 0
 cc_alt_vars_2 <= 0
 cc_alt_vars_7 <= 0
 cc_alt_vars_6 <= 0
 cc_alt_vars_1 <= 0
 cc_alt_vars_4 <= 0
 cc_alt_vars_11 <= 0
Scenario 19
Bounds
 cc_alt_vars_0 <= 0
 cc_alt_vars_10 <= 0
 cc_alt_vars_5 <= 0
 cc_alt_vars_2 <= 0
 cc_alt_vars_7 <= 0
 cc_alt_vars_6 <= 0
 cc_alt_vars_4 <= 0
 cc_alt_vars_11 <= 0
Scenario 20
Bounds
 cc_alt_vars_0 <= 0
 cc_alt_vars_10 <= 0
 cc_alt_vars_5 <= 0
 cc_alt_vars_7 <= 0
 cc_alt_vars_6 <= 0
 cc_alt_vars_1 <= 0
 cc_alt_vars_4 <= 0
 cc_alt_vars_11 <= 0
Scenario 21
Bounds
 cc_alt_vars_3 <= 0
 cc_alt_vars_10 <= 0
 cc_alt_vars_5 <= 0
 cc_alt_vars_2 <= 0
 cc_alt_vars_7 <= 0
 cc_alt_vars_6 <= 0
 cc_alt_vars_1 <= 0
 cc_alt_vars_11 <= 0
Scenario 22
Bounds
 cc_alt_vars_3 <= 0
 cc_alt_vars_0 <= 0
 cc_alt_vars_10 <= 0
 cc_alt_vars_5 <= 0
 cc_alt_vars_2 <= 0
 cc_alt_vars_7 <= 0
 cc_alt_vars_6 <= 0
 cc_alt_vars_11 <= 0
Scenario 23
Bounds
 cc_alt_vars_3 <= 0
 cc_alt_vars_0 <= 0
 cc_alt_vars_10 <= 0
 cc_alt_vars_5 <= 0
 cc_alt_vars_7 <= 0
 cc_alt_vars_6 <= 0
 cc_alt_vars_1 <= 0
 cc_alt_vars_11 <= 0
Scenario 24
Bounds
 cc_alt_vars_3 <= 0
 cc_alt_vars_10 <= 0
 cc_alt_vars_2 <= 0
 cc_alt_vars_7 <= 0
 cc_alt_vars_6 <= 0
 cc_alt_vars_1 <= 0
 cc_alt_vars_4 <= 0
 cc_alt_vars_11 <= 0
Scenario 25
Bounds
 cc_alt_vars_3 <= 0
 cc_alt_vars_0 <= 0
 cc_alt_vars_10 <= 0
 cc_alt_vars_2 <= 0
 cc_alt_vars_7 <= 0
 cc_alt_vars_6 <= 0
 cc_alt_vars_4 <= 0
 cc_alt_vars_11 <= 0
Scenario 26
Bounds
 cc_alt_vars_3 <= 0
 cc_alt_vars_0 <= 0
 cc_alt_vars_10 <= 0
 cc_alt_vars_7 <= 0
 cc_alt_vars_6 <= 0
 cc_alt_vars_1 <= 0
 cc_alt_vars_4 <= 0
 cc_alt_vars_11 <= 0
Scenario 27
Bounds
 cc_alt_vars_5 <= 0
 cc_alt_vars_9 <= 0
 cc_alt_vars_2 <= 0
 cc_alt_vars_7 <= 0
 cc_alt_vars_1 <= 0
 cc_alt_vars_4 <= 0
 cc_alt_vars_8 <= 0
 cc_alt_vars_11 <= 0
Scenario 28
Bounds
 cc_alt_vars_0 <= 0
 cc_alt_vars_5 <= 0
 cc_alt_vars_9 <= 0
 cc_alt_vars_2 <= 0
 cc_alt_vars_7 <= 0
 cc_alt_vars_4 <= 0
 cc_alt_vars_8 <= 0
 cc_alt_vars_11 <= 0
Scenario 29
Bounds
 cc_alt_vars_0 <= 0
 cc_alt_vars_5 <= 0
 cc_alt_vars_9 <= 0
 cc_alt_vars_7 <= 0
 cc_alt_vars_1 <= 0
 cc_alt_vars_4 <= 0
 cc_alt_vars_8 <= 0
 cc_alt_vars_11 <= 0
Scenario 30
Bounds
 cc_alt_vars_3 <= 0
 cc_alt_vars_5 <= 0
 cc_alt_vars_9 <= 0
 cc_alt_vars_2 <= 0
 cc_alt_vars_7 <= 0
 cc_alt_vars_1 <= 0
 cc_alt_vars_8 <= 0
 cc_alt_vars_11 <= 0
Scenario 31
Bounds
 cc_alt_vars_3 <= 0
 cc_alt_vars_0 <= 0
 cc_alt_vars_5 <= 0
 cc_alt_vars_9 <= 0
 cc_alt_vars_2 <= 0
 cc_alt_vars_7 <= 0
 cc_alt_vars_8 <= 0
 cc_alt_vars_11 <= 0
Scenario 32
Bounds
 cc_alt_vars_3 <= 0
 cc_alt_vars_0 <= 0
 cc_alt_vars_5 <= 0
 cc_alt_vars_9 <= 0
 cc_alt_vars_7 <= 0
 cc_alt_vars_1 <= 0
 cc_alt_vars_8 <= 0
 cc_alt_vars_11 <= 0
Scenario 33
Bounds
 cc_alt_vars_3 <= 0
 cc_alt_vars_9 <= 0
 cc_alt_vars_2 <= 0
 cc_alt_vars_7 <= 0
 cc_alt_vars_1 <= 0
 cc_alt_vars_4 <= 0
 cc_alt_vars_8 <= 0
 cc_alt_vars_11 <= 0
Scenario 34
Bounds
 cc_alt_vars_3 <= 0
 cc_alt_vars_0 <= 0
 cc_alt_vars_9 <= 0
 cc_alt_vars_2 <= 0
 cc_alt_vars_7 <= 0
 cc_alt_vars_4 <= 0
 cc_alt_vars_8 <= 0
 cc_alt_vars_11 <= 0
Scenario 35
Bounds
 cc_alt_vars_3 <= 0
 cc_alt_vars_0 <= 0
 cc_alt_vars_9 <= 0
 cc_alt_vars_7 <= 0
 cc_alt_vars_1 <= 0
 cc_alt_vars_4 <= 0
 cc_alt_vars_8 <= 0
 cc_alt_vars_11 <= 0
Scenario 36
Bounds
 cc_alt_vars_5 <= 0
 cc_alt_vars_9 <= 0
 cc_alt_vars_2 <= 0
 cc_alt_vars_6 <= 0
 cc_alt_vars_1 <= 0
 cc_alt_vars_4 <= 0
 cc_alt_vars_8 <= 0
 cc_alt_vars_11 <= 0
Scenario 37
Bounds
 cc_alt_vars_0 <= 0
 cc_alt_vars_5 <= 0
 cc_alt_vars_9 <= 0
 cc_alt_vars_2 <= 0
 cc_alt_vars_6 <= 0
 cc_alt_vars_4 <= 0
 cc_alt_vars_8 <= 0
 cc_alt_vars_11 <= 0
Scenario 38
Bounds
 cc_alt_vars_0 <= 0
 cc_alt_vars_5 <= 0
 cc_alt_vars_9 <= 0
 cc_alt_vars_6 <= 0
 cc_alt_vars_1 <= 0
 cc_alt_vars_4 <= 0
 cc_alt_vars_8 <= 0
 cc_alt_vars_11 <= 0
Scenario 39
Bounds
 cc_alt_vars_3 <= 0
 cc_alt_vars_5 <= 0
 cc_alt_vars_9 <= 0
 cc_alt_vars_2 <= 0
 cc_alt_vars_6 <= 0
 cc_alt_vars_1 <= 0
 cc_alt_vars_8 <= 0
 cc_alt_vars_11 <= 0
Scenario 40
Bounds
 cc_alt_vars_3 <= 0
 cc_alt_vars_0 <= 0
 cc_alt_vars_5 <= 0
 cc_alt_vars_9 <= 0
 cc_alt_vars_2 <= 0
 cc_alt_vars_6 <= 0
 cc_alt_vars_8 <= 0
 cc_alt_vars_11 <= 0
Scenario 41
Bounds
 cc_alt_vars_3 <= 0
 cc_alt_vars_0 <= 0
 cc_alt_vars_5 <= 0
 cc_alt_vars_9 <= 0
 cc_alt_vars_6 <= 0
 cc_alt_vars_1 <= 0
 cc_alt_vars_8 <= 0
 cc_alt_vars_11 <= 0
Scenario 42
Bounds
 cc_alt_vars_3 <= 0
 cc_alt_vars_9 <= 0
 cc_alt_vars_2 <= 0
 cc_alt_vars_6 <= 0
 cc_alt_vars_1 <= 0
 cc_alt_vars_4 <= 0
 cc_alt_vars_8 <= 0
 cc_alt_vars_11 <= 0
Scenario 43
Bounds
 cc_alt_vars_3 <= 0
 cc_alt_vars_0 <= 0
 cc_alt_vars_9 <= 0
 cc_alt_vars_2 <= 0
 cc_alt_vars_6 <= 0
 cc_alt_vars_4 <= 0
 cc_alt_vars_8 <= 0
 cc_alt_vars_11 <= 0
Scenario 44
Bounds
 cc_alt_vars_3 <= 0
 cc_alt_vars_0 <= 0
 cc_alt_vars_9 <= 0
 cc_alt_vars_6 <= 0
 cc_alt_vars_1 <= 0
 cc_alt_vars_4 <= 0
 cc_alt_vars_8 <= 0
 cc_alt_vars_11 <= 0
Scenario 45
Bounds
 cc_alt_vars_5 <= 0
 cc_alt_vars_9 <= 0
 cc_alt_vars_2 <= 0
 cc_alt_vars_7 <= 0
 cc_alt_vars_6 <= 0
 cc_alt_vars_1 <= 0
 cc_alt_vars_4 <= 0
 cc_alt_vars_11 <= 0
Scenario 46
Bounds
 cc_alt_vars_0 <= 0
 cc_alt_vars_5 <= 0
 cc_alt_vars_9 <= 0
 cc_alt_vars_2 <= 0
 cc_alt_vars_7 <= 0
 cc_alt_vars_6 <= 0
 cc_alt_vars_4 <= 0
 cc_alt_vars_11 <= 0
Scenario 47
Bounds
 cc_alt_vars_0 <= 0
 cc_alt_vars_5 <= 0
 cc_alt_vars_9 <= 0
 cc_alt_vars_7 <= 0
 cc_alt_vars_6 <= 0
 cc_alt_vars_1 <= 0
 cc_alt_vars_4 <= 0
 cc_alt_vars_11 <= 0
Scenario 48
Bounds
 cc_alt_vars_3 <= 0
 cc_alt_vars_5 <= 0
 cc_alt_vars_9 <= 0
 cc_alt_vars_2 <= 0
 cc_alt_vars_7 <= 0
 cc_alt_vars_6 <= 0
 cc_alt_vars_1 <= 0
 cc_alt_vars_11 <= 0
Scenario 49
Bounds
 cc_alt_vars_3 <= 0
 cc_alt_vars_0 <= 0
 cc_alt_vars_5 <= 0
 cc_alt_vars_9 <= 0
 cc_alt_vars_2 <= 0
 cc_alt_vars_7 <= 0
 cc_alt_vars_6 <= 0
 cc_alt_vars_11 <= 0
Scenario 50
Bounds
 cc_alt_vars_3 <= 0
 cc_alt_vars_0 <= 0
 cc_alt_vars_5 <= 0
 cc_alt_vars_9 <= 0
 cc_alt_vars_7 <= 0
 cc_alt_vars_6 <= 0
 cc_alt_vars_1 <= 0
 cc_alt_vars_11 <= 0
Scenario 51
Bounds
 cc_alt_vars_3 <= 0
 cc_alt_vars_9 <= 0
 cc_alt_vars_2 <= 0
 cc_alt_vars_7 <= 0
 cc_alt_vars_6 <= 0
 cc_alt_vars_1 <= 0
 cc_alt_vars_4 <= 0
 cc_alt_vars_11 <= 0
Scenario 52
Bounds
 cc_alt_vars_3 <= 0
 cc_alt_vars_0 <= 0
 cc_alt_vars_9 <= 0
 cc_alt_vars_2 <= 0
 cc_alt_vars_7 <= 0
 cc_alt_vars_6 <= 0
 cc_alt_vars_4 <= 0
 cc_alt_vars_11 <= 0
Scenario 53
Bounds
 cc_alt_vars_3 <= 0
 cc_alt_vars_0 <= 0
 cc_alt_vars_9 <= 0
 cc_alt_vars_7 <= 0
 cc_alt_vars_6 <= 0
 cc_alt_vars_1 <= 0
 cc_alt_vars_4 <= 0
 cc_alt_vars_11 <= 0
Scenario 54
Bounds
 cc_alt_vars_10 <= 0
 cc_alt_vars_5 <= 0
 cc_alt_vars_9 <= 0
 cc_alt_vars_2 <= 0
 cc_alt_vars_7 <= 0
 cc_alt_vars_1 <= 0
 cc_alt_vars_4 <= 0
 cc_alt_vars_8 <= 0
Scenario 55
Bounds
 cc_alt_vars_0 <= 0
 cc_alt_vars_10 <= 0
 cc_alt_vars_5 <= 0
 cc_alt_vars_9 <= 0
 cc_alt_vars_2 <= 0
 cc_alt_vars_7 <= 0
 cc_alt_vars_4 <= 0
 cc_alt_vars_8 <= 0
Scenario 56
Bounds
 cc_alt_vars_0 <= 0
 cc_alt_vars_10 <= 0
 cc_alt_vars_5 <= 0
 cc_alt_vars_9 <= 0
 cc_alt_vars_7 <= 0
 cc_alt_vars_1 <= 0
 cc_alt_vars_4 <= 0
 cc_alt_vars_8 <= 0
Scenario 57
Bounds
 cc_alt_vars_3 <= 0
 cc_alt_vars_10 <= 0
 cc_alt_vars_5 <= 0
 cc_alt_vars_9 <= 0
 cc_alt_vars_2 <= 0
 cc_alt_vars_7 <= 0
 cc_alt_vars_1 <= 0
 cc_alt_vars_8 <= 0
Scenario 58
Bounds
 cc_alt_vars_3 <= 0
 cc_alt_vars_0 <= 0
 cc_alt_vars_10 <= 0
 cc_alt_vars_5 <= 0
 cc_alt_vars_9 <= 0
 cc_alt_vars_2 <= 0
 cc_alt_vars_7 <= 0
 cc_alt_vars_8 <= 0
Scenario 59
Bounds
 cc_alt_vars_3 <= 0
 cc_alt_vars_0 <= 0
 cc_alt_vars_10 <= 0
 cc_alt_vars_5 <= 0
 cc_alt_vars_9 <= 0
 cc_alt_vars_7 <= 0
 cc_alt_vars_1 <= 0
 cc_alt_vars_8 <= 0
Scenario 60
Bounds
 cc_alt_vars_3 <= 0
 cc_alt_vars_10 <= 0
 cc_alt_vars_9 <= 0
 cc_alt_vars_2 <= 0
 cc_alt_vars_7 <= 0
 cc_alt_vars_1 <= 0
 cc_alt_vars_4 <= 0
 cc_alt_vars_8 <= 0
Scenario 61
Bounds
 cc_alt_vars_3 <= 0
 cc_alt_vars_0 <= 0
 cc_alt_vars_10 <= 0
 cc_alt_vars_9 <= 0
 cc_alt_vars_2 <= 0
 cc_alt_vars_7 <= 0
 cc_alt_vars_4 <= 0
 cc_alt_vars_8 <= 0
Scenario 62
Bounds
 cc_alt_vars_3 <= 0
 cc_alt_vars_0 <= 0
 cc_alt_vars_10 <= 0
 cc_alt_vars_9 <= 0
 cc_alt_vars_7 <= 0
 cc_alt_vars_1 <= 0
 cc_alt_vars_4 <= 0
 cc_alt_vars_8 <= 0
Scenario 63
Bounds
 cc_alt_vars_10 <= 0
 cc_alt_vars_5 <= 0
 cc_alt_vars_9 <= 0
 cc_alt_vars_2 <= 0
 cc_alt_vars_6 <= 0
 cc_alt_vars_1 <= 0
 cc_alt_vars_4 <= 0
 cc_alt_vars_8 <= 0
Scenario 64
Bounds
 cc_alt_vars_0 <= 0
 cc_alt_vars_10 <= 0
 cc_alt_vars_5 <= 0
 cc_alt_vars_9 <= 0
 cc_alt_vars_2 <= 0
 cc_alt_vars_6 <= 0
 cc_alt_vars_4 <= 0
 cc_alt_vars_8 <= 0
Scenario 65
Bounds
 cc_alt_vars_0 <= 0
 cc_alt_vars_10 <= 0
 cc_alt_vars_5 <= 0
 cc_alt_vars_9 <= 0
 cc_alt_vars_6 <= 0
 cc_alt_vars_1 <= 0
 cc_alt_vars_4 <= 0
 cc_alt_vars_8 <= 0
Scenario 66
Bounds
 cc_alt_vars_3 <= 0
 cc_alt_vars_10 <= 0
 cc_alt_vars_5 <= 0
 cc_alt_vars_9 <= 0
 cc_alt_vars_2 <= 0
 cc_alt_vars_6 <= 0
 cc_alt_vars_1 <= 0
 cc_alt_vars_8 <= 0
Scenario 67
Bounds
 cc_alt_vars_3 <= 0
 cc_alt_vars_0 <= 0
 cc_alt_vars_10 <= 0
 cc_alt_vars_5 <= 0
 cc_alt_vars_9 <= 0
 cc_alt_vars_2 <= 0
 cc_alt_vars_6 <= 0
 cc_alt_vars_8 <= 0
Scenario 68
Bounds
 cc_alt_vars_3 <= 0
 cc_alt_vars_0 <= 0
 cc_alt_vars_10 <= 0
 cc_alt_vars_5 <= 0
 cc_alt_vars_9 <= 0
 cc_alt_vars_6 <= 0
 cc_alt_vars_1 <= 0
 cc_alt_vars_8 <= 0
Scenario 69
Bounds
 cc_alt_vars_3 <= 0
 cc_alt_vars_10 <= 0
 cc_alt_vars_9 <= 0
 cc_alt_vars_2 <= 0
 cc_alt_vars_6 <= 0
 cc_alt_vars_1 <= 0
 cc_alt_vars_4 <= 0
 cc_alt_vars_8 <= 0
Scenario 70
Bounds
 cc_alt_vars_3 <= 0
 cc_alt_vars_0 <= 0
 cc_alt_vars_10 <= 0
 cc_alt_vars_9 <= 0
 cc_alt_vars_2 <= 0
 cc_alt_vars_6 <= 0
 cc_alt_vars_4 <= 0
 cc_alt_vars_8 <= 0
Scenario 71
Bounds
 cc_alt_vars_3 <= 0
 cc_alt_vars_0 <= 0
 cc_alt_vars_10 <= 0
 cc_alt_vars_9 <= 0
 cc_alt_vars_6 <= 0
 cc_alt_vars_1 <= 0
 cc_alt_vars_4 <= 0
 cc_alt_vars_8 <= 0
Scenario 72
Bounds
 cc_alt_vars_10 <= 0
 cc_alt_vars_5 <= 0
 cc_alt_vars_9 <= 0
 cc_alt_vars_2 <= 0
 cc_alt_vars_7 <= 0
 cc_alt_vars_6 <= 0
 cc_alt_vars_1 <= 0
 cc_alt_vars_4 <= 0
Scenario 73
Bounds
 cc_alt_vars_0 <= 0
 cc_alt_vars_10 <= 0
 cc_alt_vars_5 <= 0
 cc_alt_vars_9 <= 0
 cc_alt_vars_2 <= 0
 cc_alt_vars_7 <= 0
 cc_alt_vars_6 <= 0
 cc_alt_vars_4 <= 0
Scenario 74
Bounds
 cc_alt_vars_0 <= 0
 cc_alt_vars_10 <= 0
 cc_alt_vars_5 <= 0
 cc_alt_vars_9 <= 0
 cc_alt_vars_7 <= 0
 cc_alt_vars_6 <= 0
 cc_alt_vars_1 <= 0
 cc_alt_vars_4 <= 0
Scenario 75
Bounds
 cc_alt_vars_3 <= 0
 cc_alt_vars_10 <= 0
 cc_alt_vars_5 <= 0
 cc_alt_vars_9 <= 0
 cc_alt_vars_2 <= 0
 cc_alt_vars_7 <= 0
 cc_alt_vars_6 <= 0
 cc_alt_vars_1 <= 0
Scenario 76
Bounds
 cc_alt_vars_3 <= 0
 cc_alt_vars_0 <= 0
 cc_alt_vars_10 <= 0
 cc_alt_vars_5 <= 0
 cc_alt_vars_9 <= 0
 cc_alt_vars_2 <= 0
 cc_alt_vars_7 <= 0
 cc_alt_vars_6 <= 0
Scenario 77
Bounds
 cc_alt_vars_3 <= 0
 cc_alt_vars_0 <= 0
 cc_alt_vars_10 <= 0
 cc_alt_vars_5 <= 0
 cc_alt_vars_9 <= 0
 cc_alt_vars_7 <= 0
 cc_alt_vars_6 <= 0
 cc_alt_vars_1 <= 0
Scenario 78
Bounds
 cc_alt_vars_3 <= 0
 cc_alt_vars_10 <= 0
 cc_alt_vars_9 <= 0
 cc_alt_vars_2 <= 0
 cc_alt_vars_7 <= 0
 cc_alt_vars_6 <= 0
 cc_alt_vars_1 <= 0
 cc_alt_vars_4 <= 0
Scenario 79
Bounds
 cc_alt_vars_3 <= 0
 cc_alt_vars_0 <= 0
 cc_alt_vars_10 <= 0
 cc_alt_vars_9 <= 0
 cc_alt_vars_2 <= 0
 cc_alt_vars_7 <= 0
 cc_alt_vars_6 <= 0
 cc_alt_vars_4 <= 0
Scenario 80
Bounds
 cc_alt_vars_3 <= 0
 cc_alt_vars_0 <= 0
 cc_alt_vars_10 <= 0
 cc_alt_vars_9 <= 0
 cc_alt_vars_7 <= 0
 cc_alt_vars_6 <= 0
 cc_alt_vars_1 <= 0
 cc_alt_vars_4 <= 0
End
