\ Model ilp
\ LP format - for model browsing. Use MPS format to capture full model detail.
\ Signature: 0x6b51e536a7f2fb
Maximize
  objective
Subject To
 pstg_entry_node: N0 = 1
 pstg_entry_edge: N0->N1(2) = 1
 pstg_exit_edges: N34->N50(60) + N33->N49(57) = 1
 pstg_inflow_N1: N0->N1(2) - N1 = 0
 pstg_inflow_N2: N10->N2(23) - N2 = 0
 pstg_inflow_N3: N11->N3(19) - N3 = 0
 pstg_inflow_N4: - N4 + N17->N4(38) = 0
 pstg_inflow_N5: - N5 + N18->N5(34) = 0
 pstg_inflow_N6: N21->N6(53) - N6 = 0
 pstg_inflow_N7: N22->N7(49) - N7 = 0
 pstg_inflow_N8: - N8 + N14->N8(8) = 0
 pstg_inflow_N9: - N9 + N15->N9(4) = 0
 pstg_inflow_N10: N37->N10(12) + N41->N10(75) + N13->N10(22) - N10
   + N12->N10(81) = 0
 pstg_inflow_N11: N13->N11(21) + N38->N11(16) + N12->N11(80) - N11
   + N42->N11(79) = 0
 pstg_inflow_N12: - N12 + N37->N12(13) = 0
 pstg_inflow_N13: - N13 + N38->N13(17) = 0
 pstg_inflow_N14: N16->N14(7) - N14 + N47->N14(82) = 0
 pstg_inflow_N15: N1->N15(0) - N15 + N48->N15(86) + N16->N15(6) = 0
 pstg_inflow_N16: N1->N16(1) - N16 = 0
 pstg_inflow_N17: N19->N17(74) - N17 + N20->N17(37) + N25->N17(27)
   + N43->N17(68) = 0
 pstg_inflow_N18: N19->N18(73) - N18 + N20->N18(36) + N26->N18(31)
   + N44->N18(72) = 0
 pstg_inflow_N19: N25->N19(28) - N19 = 0
 pstg_inflow_N20: N26->N20(32) - N20 = 0
 pstg_inflow_N21: N23->N21(67) - N21 + N24->N21(52) + N45->N21(61)
   + N29->N21(42) = 0
 pstg_inflow_N22: N46->N22(65) + N24->N22(51) + N30->N22(46) + N23->N22(66)
   - N22 = 0
 pstg_inflow_N23: - N23 + N29->N23(43) = 0
 pstg_inflow_N24: N30->N24(47) - N24 = 0
 pstg_inflow_N25: - N25 + N27->N25(29) + N28->N25(77) + N10->N25(24) = 0
 pstg_inflow_N26: - N26 + N28->N26(78) + N27->N26(30) + N11->N26(18) = 0
 pstg_inflow_N27: - N27 + N10->N27(25) = 0
 pstg_inflow_N28: - N28 + N11->N28(20) = 0
 pstg_inflow_N29: N31->N29(44) + N17->N29(39) - N29 + N32->N29(70) = 0
 pstg_inflow_N30: - N30 + N32->N30(71) + N31->N30(45) + N18->N30(33) = 0
 pstg_inflow_N31: N17->N31(40) - N31 = 0
 pstg_inflow_N32: - N32 + N18->N32(35) = 0
 pstg_inflow_N33: N35->N33(58) + N21->N33(54) + N36->N33(63) - N33 = 0
 pstg_inflow_N34: N36->N34(64) + N22->N34(48) - N34 + N35->N34(59) = 0
 pstg_inflow_N35: - N35 + N21->N35(55) = 0
 pstg_inflow_N36: N22->N36(50) - N36 = 0
 pstg_inflow_N37: - N37 + N39->N37(14) + N14->N37(9) + N40->N37(84) = 0
 pstg_inflow_N38: N15->N38(3) + N40->N38(85) - N38 + N39->N38(15) = 0
 pstg_inflow_N39: N14->N39(10) - N39 = 0
 pstg_inflow_N40: N15->N40(5) - N40 = 0
 pstg_inflow_N41: - N41 + N2->N41(26) = 0
 pstg_inflow_N42: - N42 + N3->N42(76) = 0
 pstg_inflow_N43: N4->N43(41) - N43 = 0
 pstg_inflow_N44: - N44 + N5->N44(69) = 0
 pstg_inflow_N45: - N45 + N6->N45(56) = 0
 pstg_inflow_N46: - N46 + N7->N46(62) = 0
 pstg_inflow_N47: N8->N47(11) - N47 = 0
 pstg_inflow_N48: N9->N48(83) - N48 = 0
 pstg_inflow_N49: N33->N49(57) - N49 = 0
 pstg_inflow_N50: N34->N50(60) - N50 = 0
 pstg-time: 56 N42 + 20000 N19->N17(74) + 2750 N17 + 37 N26
   + 20000 N35->N33(58) + 20000 N23->N21(67) + 56 N44 + 1501 N13->N11(21)
   + 1501 N40->N38(85) + 1501 N24->N22(51) + 2.06325e+07 N37 + 56 N46
   + 20000 N39->N37(14) + 1501 N28->N26(78) + 20000 N31->N29(44) + 2750 N21
   + 37 N30 + 102000 N16->N14(7) + 1501 N32->N30(71) + 56 N48
   + 22000 N12->N11(80) + 89000 N5 + 102000 N20->N17(37) + 2750 N14
   - global-timing + 1501 N36->N34(64) + 2250 N41 + 22000 N19->N18(73)
   + 22000 N27->N26(30) + 89000 N7 + 1500 N25 + 56 N34 + 22000 N23->N22(66)
   + 89000 N9 + 68 N18 + 22000 N35->N34(59) + 110000 N2 + 68 N11
   + 102000 N24->N21(52) + 1500 N29 + 110000 N4 + 1501 N20->N18(36)
   + 22000 N31->N30(45) + 68 N22 + 2250 N43 + 102000 N40->N37(84)
   + 20000 N27->N25(29) + 110000 N6 + 68 N15 + 2250 N45
   + 102000 N28->N25(77) + 102000 N13->N10(22) + 110000 N8 + 515812 N38
   + 1501 N16->N15(6) + 102000 N32->N29(70) + 2250 N47 + 22000 N39->N38(15)
   + 484581 N1 + 2750 N10 + 102000 N36->N33(63) + 20000 N12->N10(81)
   + 89000 N3 + 2250 N33 = 0
 pstg_tc_0: N1->N16(1) + N1->N15(0) - N0->N1(2) = 0
 pstg_tc_1: - N10->N2(23) + N2->N41(26) = 0
 pstg_tc_2: - N11->N3(19) + N3->N42(76) = 0
 pstg_tc_3: N4->N43(41) - N17->N4(38) = 0
 pstg_tc_4: N5->N44(69) - N18->N5(34) = 0
 pstg_tc_5: - N21->N6(53) + N6->N45(56) = 0
 pstg_tc_6: - N22->N7(49) + N7->N46(62) = 0
 pstg_tc_7: N8->N47(11) - N14->N8(8) = 0
 pstg_tc_8: N9->N48(83) - N15->N9(4) = 0
 pstg_tc_9: - N37->N10(12) + N10->N2(23) + N10->N27(25) - N41->N10(75)
   - N13->N10(22) + N10->N25(24) - N12->N10(81) = 0
 pstg_tc_10: N11->N3(19) - N13->N11(21) - N38->N11(16) - N12->N11(80)
   + N11->N26(18) + N11->N28(20) - N42->N11(79) = 0
 pstg_tc_11: N12->N11(80) - N37->N12(13) + N12->N10(81) = 0
 pstg_tc_12: N13->N11(21) + N13->N10(22) - N38->N13(17) = 0
 pstg_tc_13: N14->N39(10) - N16->N14(7) + N14->N37(9) - N47->N14(82)
   + N14->N8(8) = 0
 pstg_tc_14: N15->N38(3) + N15->N40(5) - N1->N15(0) + N15->N9(4)
   - N48->N15(86) - N16->N15(6) = 0
 pstg_tc_15: - N1->N16(1) + N16->N14(7) + N16->N15(6) = 0
 pstg_tc_16: - N19->N17(74) - N20->N17(37) + N17->N29(39) - N25->N17(27)
   + N17->N4(38) - N43->N17(68) + N17->N31(40) = 0
 pstg_tc_17: - N19->N18(73) + N18->N5(34) - N20->N18(36) - N26->N18(31)
   + N18->N30(33) - N44->N18(72) + N18->N32(35) = 0
 pstg_tc_18: N19->N17(74) - N25->N19(28) + N19->N18(73) = 0
 pstg_tc_19: N20->N17(37) - N26->N20(32) + N20->N18(36) = 0
 pstg_tc_20: - N23->N21(67) + N21->N6(53) + N21->N35(55) - N24->N21(52)
   - N45->N21(61) + N21->N33(54) - N29->N21(42) = 0
 pstg_tc_21: - N46->N22(65) + N22->N7(49) - N24->N22(51) - N30->N22(46)
   + N22->N34(48) - N23->N22(66) + N22->N36(50) = 0
 pstg_tc_22: N23->N21(67) + N23->N22(66) - N29->N23(43) = 0
 pstg_tc_23: N24->N22(51) + N24->N21(52) - N30->N24(47) = 0
 pstg_tc_24: N25->N19(28) + N25->N17(27) - N27->N25(29) - N28->N25(77)
   - N10->N25(24) = 0
 pstg_tc_25: - N28->N26(78) - N27->N26(30) + N26->N20(32) - N11->N26(18)
   + N26->N18(31) = 0
 pstg_tc_26: N27->N26(30) - N10->N27(25) + N27->N25(29) = 0
 pstg_tc_27: N28->N26(78) - N11->N28(20) + N28->N25(77) = 0
 pstg_tc_28: - N31->N29(44) - N17->N29(39) + N29->N23(43) - N32->N29(70)
   + N29->N21(42) = 0
 pstg_tc_29: - N32->N30(71) + N30->N22(46) - N31->N30(45) + N30->N24(47)
   - N18->N30(33) = 0
 pstg_tc_30: N31->N29(44) + N31->N30(45) - N17->N31(40) = 0
 pstg_tc_31: N32->N30(71) + N32->N29(70) - N18->N32(35) = 0
 pstg_tc_32: - N35->N33(58) + N33->N49(57) - N21->N33(54) - N36->N33(63)
   = 0
 pstg_tc_33: N34->N50(60) - N36->N34(64) - N22->N34(48) - N35->N34(59) = 0
 pstg_tc_34: N35->N33(58) - N21->N35(55) + N35->N34(59) = 0
 pstg_tc_35: N36->N34(64) - N22->N36(50) + N36->N33(63) = 0
 pstg_tc_36: N37->N10(12) - N39->N37(14) - N14->N37(9) - N40->N37(84)
   + N37->N12(13) = 0
 pstg_tc_37: - N15->N38(3) - N40->N38(85) + N38->N11(16) - N39->N38(15)
   + N38->N13(17) = 0
 pstg_tc_38: - N14->N39(10) + N39->N37(14) + N39->N38(15) = 0
 pstg_tc_39: N40->N38(85) - N15->N40(5) + N40->N37(84) = 0
 pstg_tc_40: N41->N10(75) - N2->N41(26) = 0
 pstg_tc_41: - N3->N42(76) + N42->N11(79) = 0
 pstg_tc_42: - N4->N43(41) + N43->N17(68) = 0
 pstg_tc_43: - N5->N44(69) + N44->N18(72) = 0
 pstg_tc_44: N45->N21(61) - N6->N45(56) = 0
 pstg_tc_45: N46->N22(65) - N7->N46(62) = 0
 pstg_tc_46: N47->N14(82) - N8->N47(11) = 0
 pstg_tc_47: - N9->N48(83) + N48->N15(86) = 0
 pstg_loop_constraint_0: N14->N39(10) + N19->N17(74) + N25->N19(28)
   + N35->N33(58) + N23->N21(67) + N37->N10(12) + N39->N37(14)
   + N31->N29(44) + N21->N6(53) - 1e+06 N16->N14(7) - 1e+06 N20->N17(37)
   + N21->N35(55) + N14->N37(9) + N17->N29(39) + N33->N49(57) + N10->N2(23)
   + N4->N43(41) + N10->N27(25) + N29->N23(43) - 1e+06 N24->N21(52)
   + N45->N21(61) + N47->N14(82) + N25->N17(27) + N21->N33(54)
   + N8->N47(11) + N41->N10(75) - 1e+06 N40->N37(84) + N27->N25(29)
   + N17->N4(38) + N43->N17(68) + N37->N12(13) - 1e+06 N28->N25(77)
   - 1e+06 N13->N10(22) + N17->N31(40) - 1e+06 N32->N29(70) + N10->N25(24)
   + N29->N21(42) - 1e+06 N36->N33(63) + N14->N8(8) + N12->N10(81)
   + N2->N41(26) + N6->N45(56) <= 0
 pstg_loop_constraint_1: N46->N22(65) - 1e+06 N24->N22(51)
   - 1e+06 N30->N22(46) - 1e+06 N23->N22(66) <= 0
 pstg_loop_constraint_2: - 1e+06 N23->N21(67) - 1e+06 N24->N21(52)
   + N45->N21(61) - 1e+06 N29->N21(42) <= 0
 pstg_loop_constraint_3: - 1e+06 N19->N18(73) - 1e+06 N20->N18(36)
   - 1e+06 N26->N18(31) + N44->N18(72) <= 0
 pstg_loop_constraint_4: - 1e+06 N19->N17(74) - 1e+06 N20->N17(37)
   - 1e+06 N25->N17(27) + N43->N17(68) <= 0
 pstg_loop_constraint_5: - 1e+06 N13->N11(21) - 1e+06 N38->N11(16)
   - 1e+06 N12->N11(80) + N42->N11(79) <= 0
 pstg_loop_constraint_6: - 1e+06 N37->N10(12) + N41->N10(75)
   - 1e+06 N13->N10(22) - 1e+06 N12->N10(81) <= 0
 pstg_loop_constraint_7: - 1e+06 N1->N15(0) + N48->N15(86)
   - 1e+06 N16->N15(6) <= 0
 pstg_loop_constraint_8: - 1e+06 N16->N14(7) + N47->N14(82) <= 0
 pstg_upper_bound_0: N46->N22(65) - 900 N23->N21(67) - 900 N24->N22(51)
   - 900 N30->N22(46) - 900 N23->N22(66) - 900 N24->N21(52) + N45->N21(61)
   - 900 N29->N21(42) <= 0
 pstg_upper_bound_1: - 900 N19->N17(74) - 900 N20->N17(37)
   - 900 N19->N18(73) - 900 N25->N17(27) - 900 N20->N18(36) + N43->N17(68)
   - 900 N26->N18(31) + N44->N18(72) <= 0
 pstg_upper_bound_2: - 900 N37->N10(12) - 900 N13->N11(21)
   - 900 N38->N11(16) - 900 N12->N11(80) + N41->N10(75) - 900 N13->N10(22)
   + N42->N11(79) - 900 N12->N10(81) <= 0
 pstg_upper_bound_3: - 900 N16->N14(7) - 900 N1->N15(0) + N47->N14(82)
   + N48->N15(86) - 900 N16->N15(6) <= 0
 cc_alt_cstr_0: N37->N10(12) + N38->N11(16) - cc_alt_vars_0 = 0
 cc_alt_cstr_1: - cc_alt_vars_1 + N13->N11(21) + N12->N11(80) = 0
 cc_alt_cstr_2: - cc_alt_vars_2 + N13->N10(22) + N12->N10(81) = 0
 cc_alt_cstr_3: N1->N15(0) - cc_alt_vars_3 = 0
 cc_alt_cstr_4: - cc_alt_vars_4 + N16->N15(6) = 0
 cc_alt_cstr_5: N16->N14(7) - cc_alt_vars_5 = 0
 cc_alt_cstr_6: - cc_alt_vars_6 + N25->N17(27) + N26->N18(31) = 0
 cc_alt_cstr_7: - cc_alt_vars_7 + N19->N18(73) + N20->N18(36) = 0
 cc_alt_cstr_8: N19->N17(74) - cc_alt_vars_8 + N20->N17(37) = 0
 cc_alt_cstr_9: - cc_alt_vars_9 + N30->N22(46) + N29->N21(42) = 0
 cc_alt_cstr_10: N24->N22(51) + N23->N22(66) - cc_alt_vars_10 = 0
 cc_alt_cstr_11: N23->N21(67) + N24->N21(52) - cc_alt_vars_11 = 0
 cc_alt_cstr_12: N11->N26(18) - cc_alt_vars_12 + N10->N25(24) = 0
 cc_alt_cstr_13: N28->N26(78) + N27->N26(30) - cc_alt_vars_13 = 0
 cc_alt_cstr_14: - cc_alt_vars_14 + N27->N25(29) + N28->N25(77) = 0
 cc_alt_cstr_15: - cc_alt_vars_15 + N17->N29(39) + N18->N30(33) = 0
 cc_alt_cstr_16: N32->N30(71) - cc_alt_vars_16 + N31->N30(45) = 0
 cc_alt_cstr_17: N31->N29(44) + N32->N29(70) - cc_alt_vars_17 = 0
 cc_alt_cstr_18: N22->N34(48) + N21->N33(54) - cc_alt_vars_18 = 0
 cc_alt_cstr_19: N36->N34(64) - cc_alt_vars_19 + N35->N34(59) = 0
 cc_alt_cstr_20: N35->N33(58) - cc_alt_vars_20 + N36->N33(63) = 0
 cc_alt_cstr_21: N15->N38(3) + N14->N37(9) - cc_alt_vars_21 = 0
 cc_alt_cstr_22: - cc_alt_vars_22 + N40->N38(85) + N39->N38(15) = 0
 cc_alt_cstr_23: N39->N37(14) + N40->N37(84) - cc_alt_vars_23 = 0
 objective_constraint: - 5.916288 N42 - 493.52632 N19->N17(74)
   - 78.32825 N17 - 3.908976 N26 - 493.52632 N35->N33(58)
   - 493.52632 N23->N21(67) - 5.916288 N44 - 307.800304494 N13->N11(21)
   - 307.800304494 N40->N38(85) - 307.800304494 N24->N22(51)
   - 587675.4975000001 N37 - 5.916288 N46 - 493.52632 N39->N37(14)
   - 307.800304494 N28->N26(78) - 493.52632 N31->N29(44) - 78.32825 N21
   - 3.908976 N30 - 5826.130962 N16->N14(7) - 307.800304494 N32->N30(71)
   - 5.916288 N48 - 617.54 N12->N11(80) - 8182.438034 N5
   - 5826.130962 N20->N17(37) - 78.32825 N14 - 307.800304494 N36->N34(64)
   - 64.08674999999999 N41 - 617.54 N19->N18(73) - 617.54 N27->N26(30)
   - 8182.438034 N7 - 42.7245 N25 - 5.916288 N34 - 617.54 N23->N22(66)
   - 8182.438034 N9 - 7.184064 N18 - 617.54 N35->N34(59) - 2731.54299 N2
   - 7.184064 N11 - 5826.130962 N24->N21(52) - 42.7245 N29 - 2731.54299 N4
   - 307.800304494 N20->N18(36) - 617.54 N31->N30(45) - 7.184064 N22
   - 64.08674999999999 N43 - 5826.130962 N40->N37(84)
   - 493.52632 N27->N25(29) - 2731.54299 N6 - 7.184064 N15
   - 64.08674999999999 N45 - 5826.130962 N28->N25(77)
   - 5826.130962 N13->N10(22) - 2731.54299 N8 - 54494.506176 N38
   - 307.800304494 N16->N15(6) - 5826.130962 N32->N29(70)
   - 64.08674999999999 N47 - 617.54 N39->N38(15) - 51195.013488 N1
   - 78.32825 N10 - 5826.130962 N36->N33(63) - 493.52632 N12->N10(81)
   - 8182.438034 N3 - 64.08674999999999 N33 + objective = 0
Bounds
Generals
 N1->N16(1) N46->N22(65) N42 N14->N39(10) N19->N17(74) N11->N3(19)
 N9->N48(83) cc_alt_vars_1 N25->N19(28) N17 N22->N7(49) N26 cc_alt_vars_22
 N35->N33(58) N35 N15->N38(3) N23->N21(67) N44 N37->N10(12) N3->N42(76)
 N13->N11(21) N40->N38(85) N19 N24->N22(51) N28 N34->N50(60) N37
 N15->N40(5) N5->N44(69) N46 N39->N37(14) N28->N26(78) cc_alt_vars_20 N12
 N31->N29(44) N21 N21->N6(53) N30 cc_alt_vars_9 N7->N46(62) N39 N16->N14(7)
 N32->N30(71) N48 N38->N11(16) N12->N11(80) cc_alt_vars_8 N5 cc_alt_vars_7
 N20->N17(37) N14 N30->N22(46) N23 global-timing N21->N35(55) N32
 N1->N15(0) N36->N34(64) N41 N14->N37(9) N19->N18(73) cc_alt_vars_15
 N27->N26(30) N7 N17->N29(39) N16 cc_alt_vars_19 N22->N34(48) N25
 N33->N49(57) N34 N0->N1(2) N23->N22(66) cc_alt_vars_2 N10->N2(23) N0
 N26->N20(32) N9 N4->N43(41) N18 N22->N36(50) N27 N35->N34(59) N36
 cc_alt_vars_0 N10->N27(25) N2 cc_alt_vars_6 N18->N5(34) N11 cc_alt_vars_3
 N29->N23(43) N20 cc_alt_vars_13 N24->N21(52) N29 N45->N21(61) N50
 N11->N26(18) N47->N14(82) N25->N17(27) N4 cc_alt_vars_14 cc_alt_vars_16
 N20->N18(36) N13 N31->N30(45) N22 cc_alt_vars_21 N21->N33(54)
 cc_alt_vars_11 N43 N8->N47(11) N41->N10(75) N11->N28(20) N40->N37(84)
 N27->N25(29) N6 cc_alt_vars_4 cc_alt_vars_12 N17->N4(38) N15 N30->N24(47)
 cc_alt_vars_5 N15->N9(4) N43->N17(68) N45 N37->N12(13) N28->N25(77)
 N13->N10(22) N48->N15(86) N26->N18(31) N8 N17->N31(40) cc_alt_vars_23
 cc_alt_vars_18 N38 N16->N15(6) N32->N29(70) N47 N39->N38(15)
 cc_alt_vars_10 N42->N11(79) N10->N25(24) N1 N18->N30(33) N10 N29->N21(42)
 N31 N36->N33(63) N40 N14->N8(8) N44->N18(72) N49 N38->N13(17) N12->N10(81)
 N2->N41(26) N3 N18->N32(35) cc_alt_vars_17 N24 N6->N45(56) N33
Scenario 0
Bounds
 cc_alt_vars_9 <= 0
 cc_alt_vars_8 <= 0
 cc_alt_vars_7 <= 0
 cc_alt_vars_15 <= 0
 cc_alt_vars_19 <= 0
 cc_alt_vars_2 <= 0
 cc_alt_vars_0 <= 0
 cc_alt_vars_3 <= 0
 cc_alt_vars_14 <= 0
 cc_alt_vars_21 <= 0
 cc_alt_vars_11 <= 0
 cc_alt_vars_12 <= 0
 cc_alt_vars_5 <= 0
 cc_alt_vars_23 <= 0
 cc_alt_vars_18 <= 0
 cc_alt_vars_17 <= 0
Scenario 1
Bounds
 cc_alt_vars_1 <= 0
 cc_alt_vars_9 <= 0
 cc_alt_vars_8 <= 0
 cc_alt_vars_7 <= 0
 cc_alt_vars_15 <= 0
 cc_alt_vars_19 <= 0
 cc_alt_vars_0 <= 0
 cc_alt_vars_3 <= 0
 cc_alt_vars_14 <= 0
 cc_alt_vars_21 <= 0
 cc_alt_vars_11 <= 0
 cc_alt_vars_12 <= 0
 cc_alt_vars_5 <= 0
 cc_alt_vars_23 <= 0
 cc_alt_vars_18 <= 0
 cc_alt_vars_17 <= 0
Scenario 2
Bounds
 cc_alt_vars_1 <= 0
 cc_alt_vars_9 <= 0
 cc_alt_vars_8 <= 0
 cc_alt_vars_7 <= 0
 cc_alt_vars_15 <= 0
 cc_alt_vars_19 <= 0
 cc_alt_vars_2 <= 0
 cc_alt_vars_3 <= 0
 cc_alt_vars_14 <= 0
 cc_alt_vars_21 <= 0
 cc_alt_vars_11 <= 0
 cc_alt_vars_4 <= 0
 cc_alt_vars_12 <= 0
 cc_alt_vars_23 <= 0
 cc_alt_vars_18 <= 0
 cc_alt_vars_17 <= 0
Scenario 3
Bounds
 cc_alt_vars_9 <= 0
 cc_alt_vars_8 <= 0
 cc_alt_vars_7 <= 0
 cc_alt_vars_15 <= 0
 cc_alt_vars_19 <= 0
 cc_alt_vars_2 <= 0
 cc_alt_vars_0 <= 0
 cc_alt_vars_3 <= 0
 cc_alt_vars_14 <= 0
 cc_alt_vars_21 <= 0
 cc_alt_vars_11 <= 0
 cc_alt_vars_4 <= 0
 cc_alt_vars_12 <= 0
 cc_alt_vars_23 <= 0
 cc_alt_vars_18 <= 0
 cc_alt_vars_17 <= 0
Scenario 4
Bounds
 cc_alt_vars_1 <= 0
 cc_alt_vars_9 <= 0
 cc_alt_vars_8 <= 0
 cc_alt_vars_7 <= 0
 cc_alt_vars_15 <= 0
 cc_alt_vars_19 <= 0
 cc_alt_vars_0 <= 0
 cc_alt_vars_3 <= 0
 cc_alt_vars_14 <= 0
 cc_alt_vars_21 <= 0
 cc_alt_vars_11 <= 0
 cc_alt_vars_4 <= 0
 cc_alt_vars_12 <= 0
 cc_alt_vars_23 <= 0
 cc_alt_vars_18 <= 0
 cc_alt_vars_17 <= 0
Scenario 5
Bounds
 cc_alt_vars_1 <= 0
 cc_alt_vars_9 <= 0
 cc_alt_vars_8 <= 0
 cc_alt_vars_15 <= 0
 cc_alt_vars_19 <= 0
 cc_alt_vars_2 <= 0
 cc_alt_vars_6 <= 0
 cc_alt_vars_14 <= 0
 cc_alt_vars_21 <= 0
 cc_alt_vars_11 <= 0
 cc_alt_vars_4 <= 0
 cc_alt_vars_12 <= 0
 cc_alt_vars_5 <= 0
 cc_alt_vars_23 <= 0
 cc_alt_vars_18 <= 0
 cc_alt_vars_17 <= 0
Scenario 6
Bounds
 cc_alt_vars_9 <= 0
 cc_alt_vars_8 <= 0
 cc_alt_vars_15 <= 0
 cc_alt_vars_19 <= 0
 cc_alt_vars_2 <= 0
 cc_alt_vars_0 <= 0
 cc_alt_vars_6 <= 0
 cc_alt_vars_14 <= 0
 cc_alt_vars_21 <= 0
 cc_alt_vars_11 <= 0
 cc_alt_vars_4 <= 0
 cc_alt_vars_12 <= 0
 cc_alt_vars_5 <= 0
 cc_alt_vars_23 <= 0
 cc_alt_vars_18 <= 0
 cc_alt_vars_17 <= 0
Scenario 7
Bounds
 cc_alt_vars_1 <= 0
 cc_alt_vars_9 <= 0
 cc_alt_vars_8 <= 0
 cc_alt_vars_15 <= 0
 cc_alt_vars_19 <= 0
 cc_alt_vars_0 <= 0
 cc_alt_vars_6 <= 0
 cc_alt_vars_14 <= 0
 cc_alt_vars_21 <= 0
 cc_alt_vars_11 <= 0
 cc_alt_vars_4 <= 0
 cc_alt_vars_12 <= 0
 cc_alt_vars_5 <= 0
 cc_alt_vars_23 <= 0
 cc_alt_vars_18 <= 0
 cc_alt_vars_17 <= 0
Scenario 8
Bounds
 cc_alt_vars_1 <= 0
 cc_alt_vars_9 <= 0
 cc_alt_vars_8 <= 0
 cc_alt_vars_15 <= 0
 cc_alt_vars_19 <= 0
 cc_alt_vars_2 <= 0
 cc_alt_vars_6 <= 0
 cc_alt_vars_3 <= 0
 cc_alt_vars_14 <= 0
 cc_alt_vars_21 <= 0
 cc_alt_vars_11 <= 0
 cc_alt_vars_12 <= 0
 cc_alt_vars_5 <= 0
 cc_alt_vars_23 <= 0
 cc_alt_vars_18 <= 0
 cc_alt_vars_17 <= 0
Scenario 9
Bounds
 cc_alt_vars_9 <= 0
 cc_alt_vars_8 <= 0
 cc_alt_vars_15 <= 0
 cc_alt_vars_19 <= 0
 cc_alt_vars_2 <= 0
 cc_alt_vars_0 <= 0
 cc_alt_vars_6 <= 0
 cc_alt_vars_3 <= 0
 cc_alt_vars_14 <= 0
 cc_alt_vars_21 <= 0
 cc_alt_vars_11 <= 0
 cc_alt_vars_12 <= 0
 cc_alt_vars_5 <= 0
 cc_alt_vars_23 <= 0
 cc_alt_vars_18 <= 0
 cc_alt_vars_17 <= 0
Scenario 10
Bounds
 cc_alt_vars_1 <= 0
 cc_alt_vars_9 <= 0
 cc_alt_vars_8 <= 0
 cc_alt_vars_15 <= 0
 cc_alt_vars_19 <= 0
 cc_alt_vars_0 <= 0
 cc_alt_vars_6 <= 0
 cc_alt_vars_3 <= 0
 cc_alt_vars_14 <= 0
 cc_alt_vars_21 <= 0
 cc_alt_vars_11 <= 0
 cc_alt_vars_12 <= 0
 cc_alt_vars_5 <= 0
 cc_alt_vars_23 <= 0
 cc_alt_vars_18 <= 0
 cc_alt_vars_17 <= 0
Scenario 11
Bounds
 cc_alt_vars_1 <= 0
 cc_alt_vars_9 <= 0
 cc_alt_vars_8 <= 0
 cc_alt_vars_15 <= 0
 cc_alt_vars_19 <= 0
 cc_alt_vars_2 <= 0
 cc_alt_vars_6 <= 0
 cc_alt_vars_3 <= 0
 cc_alt_vars_14 <= 0
 cc_alt_vars_21 <= 0
 cc_alt_vars_11 <= 0
 cc_alt_vars_4 <= 0
 cc_alt_vars_12 <= 0
 cc_alt_vars_23 <= 0
 cc_alt_vars_18 <= 0
 cc_alt_vars_17 <= 0
Scenario 12
Bounds
 cc_alt_vars_9 <= 0
 cc_alt_vars_8 <= 0
 cc_alt_vars_15 <= 0
 cc_alt_vars_19 <= 0
 cc_alt_vars_2 <= 0
 cc_alt_vars_0 <= 0
 cc_alt_vars_6 <= 0
 cc_alt_vars_3 <= 0
 cc_alt_vars_14 <= 0
 cc_alt_vars_21 <= 0
 cc_alt_vars_11 <= 0
 cc_alt_vars_4 <= 0
 cc_alt_vars_12 <= 0
 cc_alt_vars_23 <= 0
 cc_alt_vars_18 <= 0
 cc_alt_vars_17 <= 0
Scenario 13
Bounds
 cc_alt_vars_1 <= 0
 cc_alt_vars_9 <= 0
 cc_alt_vars_8 <= 0
 cc_alt_vars_15 <= 0
 cc_alt_vars_19 <= 0
 cc_alt_vars_0 <= 0
 cc_alt_vars_6 <= 0
 cc_alt_vars_3 <= 0
 cc_alt_vars_14 <= 0
 cc_alt_vars_21 <= 0
 cc_alt_vars_11 <= 0
 cc_alt_vars_4 <= 0
 cc_alt_vars_12 <= 0
 cc_alt_vars_23 <= 0
 cc_alt_vars_18 <= 0
 cc_alt_vars_17 <= 0
Scenario 14
Bounds
 cc_alt_vars_1 <= 0
 cc_alt_vars_9 <= 0
 cc_alt_vars_7 <= 0
 cc_alt_vars_15 <= 0
 cc_alt_vars_19 <= 0
 cc_alt_vars_2 <= 0
 cc_alt_vars_6 <= 0
 cc_alt_vars_14 <= 0
 cc_alt_vars_21 <= 0
 cc_alt_vars_11 <= 0
 cc_alt_vars_4 <= 0
 cc_alt_vars_12 <= 0
 cc_alt_vars_5 <= 0
 cc_alt_vars_23 <= 0
 cc_alt_vars_18 <= 0
 cc_alt_vars_17 <= 0
Scenario 15
Bounds
 cc_alt_vars_9 <= 0
 cc_alt_vars_7 <= 0
 cc_alt_vars_15 <= 0
 cc_alt_vars_19 <= 0
 cc_alt_vars_2 <= 0
 cc_alt_vars_0 <= 0
 cc_alt_vars_6 <= 0
 cc_alt_vars_14 <= 0
 cc_alt_vars_21 <= 0
 cc_alt_vars_11 <= 0
 cc_alt_vars_4 <= 0
 cc_alt_vars_12 <= 0
 cc_alt_vars_5 <= 0
 cc_alt_vars_23 <= 0
 cc_alt_vars_18 <= 0
 cc_alt_vars_17 <= 0
Scenario 16
Bounds
 cc_alt_vars_1 <= 0
 cc_alt_vars_9 <= 0
 cc_alt_vars_7 <= 0
 cc_alt_vars_15 <= 0
 cc_alt_vars_19 <= 0
 cc_alt_vars_0 <= 0
 cc_alt_vars_6 <= 0
 cc_alt_vars_14 <= 0
 cc_alt_vars_21 <= 0
 cc_alt_vars_11 <= 0
 cc_alt_vars_4 <= 0
 cc_alt_vars_12 <= 0
 cc_alt_vars_5 <= 0
 cc_alt_vars_23 <= 0
 cc_alt_vars_18 <= 0
 cc_alt_vars_17 <= 0
Scenario 17
Bounds
 cc_alt_vars_1 <= 0
 cc_alt_vars_9 <= 0
 cc_alt_vars_7 <= 0
 cc_alt_vars_15 <= 0
 cc_alt_vars_19 <= 0
 cc_alt_vars_2 <= 0
 cc_alt_vars_6 <= 0
 cc_alt_vars_3 <= 0
 cc_alt_vars_14 <= 0
 cc_alt_vars_21 <= 0
 cc_alt_vars_11 <= 0
 cc_alt_vars_12 <= 0
 cc_alt_vars_5 <= 0
 cc_alt_vars_23 <= 0
 cc_alt_vars_18 <= 0
 cc_alt_vars_17 <= 0
Scenario 18
Bounds
 cc_alt_vars_9 <= 0
 cc_alt_vars_7 <= 0
 cc_alt_vars_15 <= 0
 cc_alt_vars_19 <= 0
 cc_alt_vars_2 <= 0
 cc_alt_vars_0 <= 0
 cc_alt_vars_6 <= 0
 cc_alt_vars_3 <= 0
 cc_alt_vars_14 <= 0
 cc_alt_vars_21 <= 0
 cc_alt_vars_11 <= 0
 cc_alt_vars_12 <= 0
 cc_alt_vars_5 <= 0
 cc_alt_vars_23 <= 0
 cc_alt_vars_18 <= 0
 cc_alt_vars_17 <= 0
Scenario 19
Bounds
 cc_alt_vars_1 <= 0
 cc_alt_vars_9 <= 0
 cc_alt_vars_7 <= 0
 cc_alt_vars_15 <= 0
 cc_alt_vars_19 <= 0
 cc_alt_vars_0 <= 0
 cc_alt_vars_6 <= 0
 cc_alt_vars_3 <= 0
 cc_alt_vars_14 <= 0
 cc_alt_vars_21 <= 0
 cc_alt_vars_11 <= 0
 cc_alt_vars_12 <= 0
 cc_alt_vars_5 <= 0
 cc_alt_vars_23 <= 0
 cc_alt_vars_18 <= 0
 cc_alt_vars_17 <= 0
Scenario 20
Bounds
 cc_alt_vars_1 <= 0
 cc_alt_vars_9 <= 0
 cc_alt_vars_7 <= 0
 cc_alt_vars_15 <= 0
 cc_alt_vars_19 <= 0
 cc_alt_vars_2 <= 0
 cc_alt_vars_6 <= 0
 cc_alt_vars_3 <= 0
 cc_alt_vars_14 <= 0
 cc_alt_vars_21 <= 0
 cc_alt_vars_11 <= 0
 cc_alt_vars_4 <= 0
 cc_alt_vars_12 <= 0
 cc_alt_vars_23 <= 0
 cc_alt_vars_18 <= 0
 cc_alt_vars_17 <= 0
Scenario 21
Bounds
 cc_alt_vars_9 <= 0
 cc_alt_vars_7 <= 0
 cc_alt_vars_15 <= 0
 cc_alt_vars_19 <= 0
 cc_alt_vars_2 <= 0
 cc_alt_vars_0 <= 0
 cc_alt_vars_6 <= 0
 cc_alt_vars_3 <= 0
 cc_alt_vars_14 <= 0
 cc_alt_vars_21 <= 0
 cc_alt_vars_11 <= 0
 cc_alt_vars_4 <= 0
 cc_alt_vars_12 <= 0
 cc_alt_vars_23 <= 0
 cc_alt_vars_18 <= 0
 cc_alt_vars_17 <= 0
Scenario 22
Bounds
 cc_alt_vars_1 <= 0
 cc_alt_vars_9 <= 0
 cc_alt_vars_7 <= 0
 cc_alt_vars_15 <= 0
 cc_alt_vars_19 <= 0
 cc_alt_vars_0 <= 0
 cc_alt_vars_6 <= 0
 cc_alt_vars_3 <= 0
 cc_alt_vars_14 <= 0
 cc_alt_vars_21 <= 0
 cc_alt_vars_11 <= 0
 cc_alt_vars_4 <= 0
 cc_alt_vars_12 <= 0
 cc_alt_vars_23 <= 0
 cc_alt_vars_18 <= 0
 cc_alt_vars_17 <= 0
Scenario 23
Bounds
 cc_alt_vars_1 <= 0
 cc_alt_vars_9 <= 0
 cc_alt_vars_8 <= 0
 cc_alt_vars_7 <= 0
 cc_alt_vars_15 <= 0
 cc_alt_vars_19 <= 0
 cc_alt_vars_2 <= 0
 cc_alt_vars_14 <= 0
 cc_alt_vars_21 <= 0
 cc_alt_vars_4 <= 0
 cc_alt_vars_12 <= 0
 cc_alt_vars_5 <= 0
 cc_alt_vars_23 <= 0
 cc_alt_vars_18 <= 0
 cc_alt_vars_10 <= 0
 cc_alt_vars_17 <= 0
Scenario 24
Bounds
 cc_alt_vars_9 <= 0
 cc_alt_vars_8 <= 0
 cc_alt_vars_7 <= 0
 cc_alt_vars_15 <= 0
 cc_alt_vars_19 <= 0
 cc_alt_vars_2 <= 0
 cc_alt_vars_0 <= 0
 cc_alt_vars_14 <= 0
 cc_alt_vars_21 <= 0
 cc_alt_vars_4 <= 0
 cc_alt_vars_12 <= 0
 cc_alt_vars_5 <= 0
 cc_alt_vars_23 <= 0
 cc_alt_vars_18 <= 0
 cc_alt_vars_10 <= 0
 cc_alt_vars_17 <= 0
Scenario 25
Bounds
 cc_alt_vars_1 <= 0
 cc_alt_vars_9 <= 0
 cc_alt_vars_8 <= 0
 cc_alt_vars_7 <= 0
 cc_alt_vars_15 <= 0
 cc_alt_vars_19 <= 0
 cc_alt_vars_0 <= 0
 cc_alt_vars_14 <= 0
 cc_alt_vars_21 <= 0
 cc_alt_vars_4 <= 0
 cc_alt_vars_12 <= 0
 cc_alt_vars_5 <= 0
 cc_alt_vars_23 <= 0
 cc_alt_vars_18 <= 0
 cc_alt_vars_10 <= 0
 cc_alt_vars_17 <= 0
Scenario 26
Bounds
 cc_alt_vars_1 <= 0
 cc_alt_vars_9 <= 0
 cc_alt_vars_8 <= 0
 cc_alt_vars_7 <= 0
 cc_alt_vars_15 <= 0
 cc_alt_vars_19 <= 0
 cc_alt_vars_2 <= 0
 cc_alt_vars_3 <= 0
 cc_alt_vars_14 <= 0
 cc_alt_vars_21 <= 0
 cc_alt_vars_12 <= 0
 cc_alt_vars_5 <= 0
 cc_alt_vars_23 <= 0
 cc_alt_vars_18 <= 0
 cc_alt_vars_10 <= 0
 cc_alt_vars_17 <= 0
Scenario 27
Bounds
 cc_alt_vars_9 <= 0
 cc_alt_vars_8 <= 0
 cc_alt_vars_7 <= 0
 cc_alt_vars_15 <= 0
 cc_alt_vars_19 <= 0
 cc_alt_vars_2 <= 0
 cc_alt_vars_0 <= 0
 cc_alt_vars_3 <= 0
 cc_alt_vars_14 <= 0
 cc_alt_vars_21 <= 0
 cc_alt_vars_12 <= 0
 cc_alt_vars_5 <= 0
 cc_alt_vars_23 <= 0
 cc_alt_vars_18 <= 0
 cc_alt_vars_10 <= 0
 cc_alt_vars_17 <= 0
Scenario 28
Bounds
 cc_alt_vars_1 <= 0
 cc_alt_vars_9 <= 0
 cc_alt_vars_8 <= 0
 cc_alt_vars_7 <= 0
 cc_alt_vars_15 <= 0
 cc_alt_vars_19 <= 0
 cc_alt_vars_0 <= 0
 cc_alt_vars_3 <= 0
 cc_alt_vars_14 <= 0
 cc_alt_vars_21 <= 0
 cc_alt_vars_12 <= 0
 cc_alt_vars_5 <= 0
 cc_alt_vars_23 <= 0
 cc_alt_vars_18 <= 0
 cc_alt_vars_10 <= 0
 cc_alt_vars_17 <= 0
Scenario 29
Bounds
 cc_alt_vars_1 <= 0
 cc_alt_vars_9 <= 0
 cc_alt_vars_8 <= 0
 cc_alt_vars_7 <= 0
 cc_alt_vars_15 <= 0
 cc_alt_vars_19 <= 0
 cc_alt_vars_2 <= 0
 cc_alt_vars_3 <= 0
 cc_alt_vars_14 <= 0
 cc_alt_vars_21 <= 0
 cc_alt_vars_4 <= 0
 cc_alt_vars_12 <= 0
 cc_alt_vars_23 <= 0
 cc_alt_vars_18 <= 0
 cc_alt_vars_10 <= 0
 cc_alt_vars_17 <= 0
Scenario 30
Bounds
 cc_alt_vars_9 <= 0
 cc_alt_vars_8 <= 0
 cc_alt_vars_7 <= 0
 cc_alt_vars_15 <= 0
 cc_alt_vars_19 <= 0
 cc_alt_vars_2 <= 0
 cc_alt_vars_0 <= 0
 cc_alt_vars_3 <= 0
 cc_alt_vars_14 <= 0
 cc_alt_vars_21 <= 0
 cc_alt_vars_4 <= 0
 cc_alt_vars_12 <= 0
 cc_alt_vars_23 <= 0
 cc_alt_vars_18 <= 0
 cc_alt_vars_10 <= 0
 cc_alt_vars_17 <= 0
Scenario 31
Bounds
 cc_alt_vars_1 <= 0
 cc_alt_vars_9 <= 0
 cc_alt_vars_8 <= 0
 cc_alt_vars_7 <= 0
 cc_alt_vars_15 <= 0
 cc_alt_vars_19 <= 0
 cc_alt_vars_0 <= 0
 cc_alt_vars_3 <= 0
 cc_alt_vars_14 <= 0
 cc_alt_vars_21 <= 0
 cc_alt_vars_4 <= 0
 cc_alt_vars_12 <= 0
 cc_alt_vars_23 <= 0
 cc_alt_vars_18 <= 0
 cc_alt_vars_10 <= 0
 cc_alt_vars_17 <= 0
Scenario 32
Bounds
 cc_alt_vars_1 <= 0
 cc_alt_vars_9 <= 0
 cc_alt_vars_8 <= 0
 cc_alt_vars_15 <= 0
 cc_alt_vars_19 <= 0
 cc_alt_vars_2 <= 0
 cc_alt_vars_6 <= 0
 cc_alt_vars_14 <= 0
 cc_alt_vars_21 <= 0
 cc_alt_vars_4 <= 0
 cc_alt_vars_12 <= 0
 cc_alt_vars_5 <= 0
 cc_alt_vars_23 <= 0
 cc_alt_vars_18 <= 0
 cc_alt_vars_10 <= 0
 cc_alt_vars_17 <= 0
Scenario 33
Bounds
 cc_alt_vars_9 <= 0
 cc_alt_vars_8 <= 0
 cc_alt_vars_15 <= 0
 cc_alt_vars_19 <= 0
 cc_alt_vars_2 <= 0
 cc_alt_vars_0 <= 0
 cc_alt_vars_6 <= 0
 cc_alt_vars_14 <= 0
 cc_alt_vars_21 <= 0
 cc_alt_vars_4 <= 0
 cc_alt_vars_12 <= 0
 cc_alt_vars_5 <= 0
 cc_alt_vars_23 <= 0
 cc_alt_vars_18 <= 0
 cc_alt_vars_10 <= 0
 cc_alt_vars_17 <= 0
Scenario 34
Bounds
 cc_alt_vars_1 <= 0
 cc_alt_vars_9 <= 0
 cc_alt_vars_8 <= 0
 cc_alt_vars_15 <= 0
 cc_alt_vars_19 <= 0
 cc_alt_vars_0 <= 0
 cc_alt_vars_6 <= 0
 cc_alt_vars_14 <= 0
 cc_alt_vars_21 <= 0
 cc_alt_vars_4 <= 0
 cc_alt_vars_12 <= 0
 cc_alt_vars_5 <= 0
 cc_alt_vars_23 <= 0
 cc_alt_vars_18 <= 0
 cc_alt_vars_10 <= 0
 cc_alt_vars_17 <= 0
Scenario 35
Bounds
 cc_alt_vars_1 <= 0
 cc_alt_vars_9 <= 0
 cc_alt_vars_8 <= 0
 cc_alt_vars_15 <= 0
 cc_alt_vars_19 <= 0
 cc_alt_vars_2 <= 0
 cc_alt_vars_6 <= 0
 cc_alt_vars_3 <= 0
 cc_alt_vars_14 <= 0
 cc_alt_vars_21 <= 0
 cc_alt_vars_12 <= 0
 cc_alt_vars_5 <= 0
 cc_alt_vars_23 <= 0
 cc_alt_vars_18 <= 0
 cc_alt_vars_10 <= 0
 cc_alt_vars_17 <= 0
Scenario 36
Bounds
 cc_alt_vars_9 <= 0
 cc_alt_vars_8 <= 0
 cc_alt_vars_15 <= 0
 cc_alt_vars_19 <= 0
 cc_alt_vars_2 <= 0
 cc_alt_vars_0 <= 0
 cc_alt_vars_6 <= 0
 cc_alt_vars_3 <= 0
 cc_alt_vars_14 <= 0
 cc_alt_vars_21 <= 0
 cc_alt_vars_12 <= 0
 cc_alt_vars_5 <= 0
 cc_alt_vars_23 <= 0
 cc_alt_vars_18 <= 0
 cc_alt_vars_10 <= 0
 cc_alt_vars_17 <= 0
Scenario 37
Bounds
 cc_alt_vars_1 <= 0
 cc_alt_vars_9 <= 0
 cc_alt_vars_8 <= 0
 cc_alt_vars_15 <= 0
 cc_alt_vars_19 <= 0
 cc_alt_vars_0 <= 0
 cc_alt_vars_6 <= 0
 cc_alt_vars_3 <= 0
 cc_alt_vars_14 <= 0
 cc_alt_vars_21 <= 0
 cc_alt_vars_12 <= 0
 cc_alt_vars_5 <= 0
 cc_alt_vars_23 <= 0
 cc_alt_vars_18 <= 0
 cc_alt_vars_10 <= 0
 cc_alt_vars_17 <= 0
Scenario 38
Bounds
 cc_alt_vars_1 <= 0
 cc_alt_vars_9 <= 0
 cc_alt_vars_8 <= 0
 cc_alt_vars_15 <= 0
 cc_alt_vars_19 <= 0
 cc_alt_vars_2 <= 0
 cc_alt_vars_6 <= 0
 cc_alt_vars_3 <= 0
 cc_alt_vars_14 <= 0
 cc_alt_vars_21 <= 0
 cc_alt_vars_4 <= 0
 cc_alt_vars_12 <= 0
 cc_alt_vars_23 <= 0
 cc_alt_vars_18 <= 0
 cc_alt_vars_10 <= 0
 cc_alt_vars_17 <= 0
Scenario 39
Bounds
 cc_alt_vars_9 <= 0
 cc_alt_vars_8 <= 0
 cc_alt_vars_15 <= 0
 cc_alt_vars_19 <= 0
 cc_alt_vars_2 <= 0
 cc_alt_vars_0 <= 0
 cc_alt_vars_6 <= 0
 cc_alt_vars_3 <= 0
 cc_alt_vars_14 <= 0
 cc_alt_vars_21 <= 0
 cc_alt_vars_4 <= 0
 cc_alt_vars_12 <= 0
 cc_alt_vars_23 <= 0
 cc_alt_vars_18 <= 0
 cc_alt_vars_10 <= 0
 cc_alt_vars_17 <= 0
Scenario 40
Bounds
 cc_alt_vars_1 <= 0
 cc_alt_vars_9 <= 0
 cc_alt_vars_8 <= 0
 cc_alt_vars_15 <= 0
 cc_alt_vars_19 <= 0
 cc_alt_vars_0 <= 0
 cc_alt_vars_6 <= 0
 cc_alt_vars_3 <= 0
 cc_alt_vars_14 <= 0
 cc_alt_vars_21 <= 0
 cc_alt_vars_4 <= 0
 cc_alt_vars_12 <= 0
 cc_alt_vars_23 <= 0
 cc_alt_vars_18 <= 0
 cc_alt_vars_10 <= 0
 cc_alt_vars_17 <= 0
Scenario 41
Bounds
 cc_alt_vars_1 <= 0
 cc_alt_vars_9 <= 0
 cc_alt_vars_7 <= 0
 cc_alt_vars_15 <= 0
 cc_alt_vars_19 <= 0
 cc_alt_vars_2 <= 0
 cc_alt_vars_6 <= 0
 cc_alt_vars_14 <= 0
 cc_alt_vars_21 <= 0
 cc_alt_vars_4 <= 0
 cc_alt_vars_12 <= 0
 cc_alt_vars_5 <= 0
 cc_alt_vars_23 <= 0
 cc_alt_vars_18 <= 0
 cc_alt_vars_10 <= 0
 cc_alt_vars_17 <= 0
Scenario 42
Bounds
 cc_alt_vars_9 <= 0
 cc_alt_vars_7 <= 0
 cc_alt_vars_15 <= 0
 cc_alt_vars_19 <= 0
 cc_alt_vars_2 <= 0
 cc_alt_vars_0 <= 0
 cc_alt_vars_6 <= 0
 cc_alt_vars_14 <= 0
 cc_alt_vars_21 <= 0
 cc_alt_vars_4 <= 0
 cc_alt_vars_12 <= 0
 cc_alt_vars_5 <= 0
 cc_alt_vars_23 <= 0
 cc_alt_vars_18 <= 0
 cc_alt_vars_10 <= 0
 cc_alt_vars_17 <= 0
Scenario 43
Bounds
 cc_alt_vars_1 <= 0
 cc_alt_vars_9 <= 0
 cc_alt_vars_7 <= 0
 cc_alt_vars_15 <= 0
 cc_alt_vars_19 <= 0
 cc_alt_vars_0 <= 0
 cc_alt_vars_6 <= 0
 cc_alt_vars_14 <= 0
 cc_alt_vars_21 <= 0
 cc_alt_vars_4 <= 0
 cc_alt_vars_12 <= 0
 cc_alt_vars_5 <= 0
 cc_alt_vars_23 <= 0
 cc_alt_vars_18 <= 0
 cc_alt_vars_10 <= 0
 cc_alt_vars_17 <= 0
Scenario 44
Bounds
 cc_alt_vars_1 <= 0
 cc_alt_vars_9 <= 0
 cc_alt_vars_7 <= 0
 cc_alt_vars_15 <= 0
 cc_alt_vars_19 <= 0
 cc_alt_vars_2 <= 0
 cc_alt_vars_6 <= 0
 cc_alt_vars_3 <= 0
 cc_alt_vars_14 <= 0
 cc_alt_vars_21 <= 0
 cc_alt_vars_12 <= 0
 cc_alt_vars_5 <= 0
 cc_alt_vars_23 <= 0
 cc_alt_vars_18 <= 0
 cc_alt_vars_10 <= 0
 cc_alt_vars_17 <= 0
Scenario 45
Bounds
 cc_alt_vars_9 <= 0
 cc_alt_vars_7 <= 0
 cc_alt_vars_15 <= 0
 cc_alt_vars_19 <= 0
 cc_alt_vars_2 <= 0
 cc_alt_vars_0 <= 0
 cc_alt_vars_6 <= 0
 cc_alt_vars_3 <= 0
 cc_alt_vars_14 <= 0
 cc_alt_vars_21 <= 0
 cc_alt_vars_12 <= 0
 cc_alt_vars_5 <= 0
 cc_alt_vars_23 <= 0
 cc_alt_vars_18 <= 0
 cc_alt_vars_10 <= 0
 cc_alt_vars_17 <= 0
Scenario 46
Bounds
 cc_alt_vars_1 <= 0
 cc_alt_vars_9 <= 0
 cc_alt_vars_7 <= 0
 cc_alt_vars_15 <= 0
 cc_alt_vars_19 <= 0
 cc_alt_vars_0 <= 0
 cc_alt_vars_6 <= 0
 cc_alt_vars_3 <= 0
 cc_alt_vars_14 <= 0
 cc_alt_vars_21 <= 0
 cc_alt_vars_12 <= 0
 cc_alt_vars_5 <= 0
 cc_alt_vars_23 <= 0
 cc_alt_vars_18 <= 0
 cc_alt_vars_10 <= 0
 cc_alt_vars_17 <= 0
Scenario 47
Bounds
 cc_alt_vars_1 <= 0
 cc_alt_vars_9 <= 0
 cc_alt_vars_7 <= 0
 cc_alt_vars_15 <= 0
 cc_alt_vars_19 <= 0
 cc_alt_vars_2 <= 0
 cc_alt_vars_6 <= 0
 cc_alt_vars_3 <= 0
 cc_alt_vars_14 <= 0
 cc_alt_vars_21 <= 0
 cc_alt_vars_4 <= 0
 cc_alt_vars_12 <= 0
 cc_alt_vars_23 <= 0
 cc_alt_vars_18 <= 0
 cc_alt_vars_10 <= 0
 cc_alt_vars_17 <= 0
Scenario 48
Bounds
 cc_alt_vars_9 <= 0
 cc_alt_vars_7 <= 0
 cc_alt_vars_15 <= 0
 cc_alt_vars_19 <= 0
 cc_alt_vars_2 <= 0
 cc_alt_vars_0 <= 0
 cc_alt_vars_6 <= 0
 cc_alt_vars_3 <= 0
 cc_alt_vars_14 <= 0
 cc_alt_vars_21 <= 0
 cc_alt_vars_4 <= 0
 cc_alt_vars_12 <= 0
 cc_alt_vars_23 <= 0
 cc_alt_vars_18 <= 0
 cc_alt_vars_10 <= 0
 cc_alt_vars_17 <= 0
Scenario 49
Bounds
 cc_alt_vars_1 <= 0
 cc_alt_vars_9 <= 0
 cc_alt_vars_7 <= 0
 cc_alt_vars_15 <= 0
 cc_alt_vars_19 <= 0
 cc_alt_vars_0 <= 0
 cc_alt_vars_6 <= 0
 cc_alt_vars_3 <= 0
 cc_alt_vars_14 <= 0
 cc_alt_vars_21 <= 0
 cc_alt_vars_4 <= 0
 cc_alt_vars_12 <= 0
 cc_alt_vars_23 <= 0
 cc_alt_vars_18 <= 0
 cc_alt_vars_10 <= 0
 cc_alt_vars_17 <= 0
Scenario 50
Bounds
 cc_alt_vars_1 <= 0
 cc_alt_vars_8 <= 0
 cc_alt_vars_7 <= 0
 cc_alt_vars_15 <= 0
 cc_alt_vars_19 <= 0
 cc_alt_vars_2 <= 0
 cc_alt_vars_13 <= 0
 cc_alt_vars_21 <= 0
 cc_alt_vars_11 <= 0
 cc_alt_vars_4 <= 0
 cc_alt_vars_12 <= 0
 cc_alt_vars_5 <= 0
 cc_alt_vars_23 <= 0
 cc_alt_vars_18 <= 0
 cc_alt_vars_10 <= 0
 cc_alt_vars_17 <= 0
Scenario 51
Bounds
 cc_alt_vars_8 <= 0
 cc_alt_vars_7 <= 0
 cc_alt_vars_15 <= 0
 cc_alt_vars_19 <= 0
 cc_alt_vars_2 <= 0
 cc_alt_vars_0 <= 0
 cc_alt_vars_13 <= 0
 cc_alt_vars_21 <= 0
 cc_alt_vars_11 <= 0
 cc_alt_vars_4 <= 0
 cc_alt_vars_12 <= 0
 cc_alt_vars_5 <= 0
 cc_alt_vars_23 <= 0
 cc_alt_vars_18 <= 0
 cc_alt_vars_10 <= 0
 cc_alt_vars_17 <= 0
Scenario 52
Bounds
 cc_alt_vars_1 <= 0
 cc_alt_vars_8 <= 0
 cc_alt_vars_7 <= 0
 cc_alt_vars_15 <= 0
 cc_alt_vars_19 <= 0
 cc_alt_vars_0 <= 0
 cc_alt_vars_13 <= 0
 cc_alt_vars_21 <= 0
 cc_alt_vars_11 <= 0
 cc_alt_vars_4 <= 0
 cc_alt_vars_12 <= 0
 cc_alt_vars_5 <= 0
 cc_alt_vars_23 <= 0
 cc_alt_vars_18 <= 0
 cc_alt_vars_10 <= 0
 cc_alt_vars_17 <= 0
Scenario 53
Bounds
 cc_alt_vars_1 <= 0
 cc_alt_vars_8 <= 0
 cc_alt_vars_7 <= 0
 cc_alt_vars_15 <= 0
 cc_alt_vars_19 <= 0
 cc_alt_vars_2 <= 0
 cc_alt_vars_3 <= 0
 cc_alt_vars_13 <= 0
 cc_alt_vars_21 <= 0
 cc_alt_vars_11 <= 0
 cc_alt_vars_12 <= 0
 cc_alt_vars_5 <= 0
 cc_alt_vars_23 <= 0
 cc_alt_vars_18 <= 0
 cc_alt_vars_10 <= 0
 cc_alt_vars_17 <= 0
Scenario 54
Bounds
 cc_alt_vars_8 <= 0
 cc_alt_vars_7 <= 0
 cc_alt_vars_15 <= 0
 cc_alt_vars_19 <= 0
 cc_alt_vars_2 <= 0
 cc_alt_vars_0 <= 0
 cc_alt_vars_3 <= 0
 cc_alt_vars_13 <= 0
 cc_alt_vars_21 <= 0
 cc_alt_vars_11 <= 0
 cc_alt_vars_12 <= 0
 cc_alt_vars_5 <= 0
 cc_alt_vars_23 <= 0
 cc_alt_vars_18 <= 0
 cc_alt_vars_10 <= 0
 cc_alt_vars_17 <= 0
Scenario 55
Bounds
 cc_alt_vars_1 <= 0
 cc_alt_vars_8 <= 0
 cc_alt_vars_7 <= 0
 cc_alt_vars_15 <= 0
 cc_alt_vars_19 <= 0
 cc_alt_vars_0 <= 0
 cc_alt_vars_3 <= 0
 cc_alt_vars_13 <= 0
 cc_alt_vars_21 <= 0
 cc_alt_vars_11 <= 0
 cc_alt_vars_12 <= 0
 cc_alt_vars_5 <= 0
 cc_alt_vars_23 <= 0
 cc_alt_vars_18 <= 0
 cc_alt_vars_10 <= 0
 cc_alt_vars_17 <= 0
Scenario 56
Bounds
 cc_alt_vars_1 <= 0
 cc_alt_vars_8 <= 0
 cc_alt_vars_7 <= 0
 cc_alt_vars_15 <= 0
 cc_alt_vars_19 <= 0
 cc_alt_vars_2 <= 0
 cc_alt_vars_3 <= 0
 cc_alt_vars_13 <= 0
 cc_alt_vars_21 <= 0
 cc_alt_vars_11 <= 0
 cc_alt_vars_4 <= 0
 cc_alt_vars_12 <= 0
 cc_alt_vars_23 <= 0
 cc_alt_vars_18 <= 0
 cc_alt_vars_10 <= 0
 cc_alt_vars_17 <= 0
Scenario 57
Bounds
 cc_alt_vars_8 <= 0
 cc_alt_vars_7 <= 0
 cc_alt_vars_15 <= 0
 cc_alt_vars_19 <= 0
 cc_alt_vars_2 <= 0
 cc_alt_vars_0 <= 0
 cc_alt_vars_3 <= 0
 cc_alt_vars_13 <= 0
 cc_alt_vars_21 <= 0
 cc_alt_vars_11 <= 0
 cc_alt_vars_4 <= 0
 cc_alt_vars_12 <= 0
 cc_alt_vars_23 <= 0
 cc_alt_vars_18 <= 0
 cc_alt_vars_10 <= 0
 cc_alt_vars_17 <= 0
Scenario 58
Bounds
 cc_alt_vars_1 <= 0
 cc_alt_vars_8 <= 0
 cc_alt_vars_7 <= 0
 cc_alt_vars_15 <= 0
 cc_alt_vars_19 <= 0
 cc_alt_vars_0 <= 0
 cc_alt_vars_3 <= 0
 cc_alt_vars_13 <= 0
 cc_alt_vars_21 <= 0
 cc_alt_vars_11 <= 0
 cc_alt_vars_4 <= 0
 cc_alt_vars_12 <= 0
 cc_alt_vars_23 <= 0
 cc_alt_vars_18 <= 0
 cc_alt_vars_10 <= 0
 cc_alt_vars_17 <= 0
Scenario 59
Bounds
 cc_alt_vars_1 <= 0
 cc_alt_vars_8 <= 0
 cc_alt_vars_15 <= 0
 cc_alt_vars_19 <= 0
 cc_alt_vars_2 <= 0
 cc_alt_vars_6 <= 0
 cc_alt_vars_13 <= 0
 cc_alt_vars_21 <= 0
 cc_alt_vars_11 <= 0
 cc_alt_vars_4 <= 0
 cc_alt_vars_12 <= 0
 cc_alt_vars_5 <= 0
 cc_alt_vars_23 <= 0
 cc_alt_vars_18 <= 0
 cc_alt_vars_10 <= 0
 cc_alt_vars_17 <= 0
Scenario 60
Bounds
 cc_alt_vars_8 <= 0
 cc_alt_vars_15 <= 0
 cc_alt_vars_19 <= 0
 cc_alt_vars_2 <= 0
 cc_alt_vars_0 <= 0
 cc_alt_vars_6 <= 0
 cc_alt_vars_13 <= 0
 cc_alt_vars_21 <= 0
 cc_alt_vars_11 <= 0
 cc_alt_vars_4 <= 0
 cc_alt_vars_12 <= 0
 cc_alt_vars_5 <= 0
 cc_alt_vars_23 <= 0
 cc_alt_vars_18 <= 0
 cc_alt_vars_10 <= 0
 cc_alt_vars_17 <= 0
Scenario 61
Bounds
 cc_alt_vars_1 <= 0
 cc_alt_vars_8 <= 0
 cc_alt_vars_15 <= 0
 cc_alt_vars_19 <= 0
 cc_alt_vars_0 <= 0
 cc_alt_vars_6 <= 0
 cc_alt_vars_13 <= 0
 cc_alt_vars_21 <= 0
 cc_alt_vars_11 <= 0
 cc_alt_vars_4 <= 0
 cc_alt_vars_12 <= 0
 cc_alt_vars_5 <= 0
 cc_alt_vars_23 <= 0
 cc_alt_vars_18 <= 0
 cc_alt_vars_10 <= 0
 cc_alt_vars_17 <= 0
Scenario 62
Bounds
 cc_alt_vars_1 <= 0
 cc_alt_vars_8 <= 0
 cc_alt_vars_15 <= 0
 cc_alt_vars_19 <= 0
 cc_alt_vars_2 <= 0
 cc_alt_vars_6 <= 0
 cc_alt_vars_3 <= 0
 cc_alt_vars_13 <= 0
 cc_alt_vars_21 <= 0
 cc_alt_vars_11 <= 0
 cc_alt_vars_12 <= 0
 cc_alt_vars_5 <= 0
 cc_alt_vars_23 <= 0
 cc_alt_vars_18 <= 0
 cc_alt_vars_10 <= 0
 cc_alt_vars_17 <= 0
Scenario 63
Bounds
 cc_alt_vars_8 <= 0
 cc_alt_vars_15 <= 0
 cc_alt_vars_19 <= 0
 cc_alt_vars_2 <= 0
 cc_alt_vars_0 <= 0
 cc_alt_vars_6 <= 0
 cc_alt_vars_3 <= 0
 cc_alt_vars_13 <= 0
 cc_alt_vars_21 <= 0
 cc_alt_vars_11 <= 0
 cc_alt_vars_12 <= 0
 cc_alt_vars_5 <= 0
 cc_alt_vars_23 <= 0
 cc_alt_vars_18 <= 0
 cc_alt_vars_10 <= 0
 cc_alt_vars_17 <= 0
Scenario 64
Bounds
 cc_alt_vars_1 <= 0
 cc_alt_vars_8 <= 0
 cc_alt_vars_15 <= 0
 cc_alt_vars_19 <= 0
 cc_alt_vars_0 <= 0
 cc_alt_vars_6 <= 0
 cc_alt_vars_3 <= 0
 cc_alt_vars_13 <= 0
 cc_alt_vars_21 <= 0
 cc_alt_vars_11 <= 0
 cc_alt_vars_12 <= 0
 cc_alt_vars_5 <= 0
 cc_alt_vars_23 <= 0
 cc_alt_vars_18 <= 0
 cc_alt_vars_10 <= 0
 cc_alt_vars_17 <= 0
Scenario 65
Bounds
 cc_alt_vars_1 <= 0
 cc_alt_vars_8 <= 0
 cc_alt_vars_15 <= 0
 cc_alt_vars_19 <= 0
 cc_alt_vars_2 <= 0
 cc_alt_vars_6 <= 0
 cc_alt_vars_3 <= 0
 cc_alt_vars_13 <= 0
 cc_alt_vars_21 <= 0
 cc_alt_vars_11 <= 0
 cc_alt_vars_4 <= 0
 cc_alt_vars_12 <= 0
 cc_alt_vars_23 <= 0
 cc_alt_vars_18 <= 0
 cc_alt_vars_10 <= 0
 cc_alt_vars_17 <= 0
Scenario 66
Bounds
 cc_alt_vars_8 <= 0
 cc_alt_vars_15 <= 0
 cc_alt_vars_19 <= 0
 cc_alt_vars_2 <= 0
 cc_alt_vars_0 <= 0
 cc_alt_vars_6 <= 0
 cc_alt_vars_3 <= 0
 cc_alt_vars_13 <= 0
 cc_alt_vars_21 <= 0
 cc_alt_vars_11 <= 0
 cc_alt_vars_4 <= 0
 cc_alt_vars_12 <= 0
 cc_alt_vars_23 <= 0
 cc_alt_vars_18 <= 0
 cc_alt_vars_10 <= 0
 cc_alt_vars_17 <= 0
Scenario 67
Bounds
 cc_alt_vars_1 <= 0
 cc_alt_vars_8 <= 0
 cc_alt_vars_15 <= 0
 cc_alt_vars_19 <= 0
 cc_alt_vars_0 <= 0
 cc_alt_vars_6 <= 0
 cc_alt_vars_3 <= 0
 cc_alt_vars_13 <= 0
 cc_alt_vars_21 <= 0
 cc_alt_vars_11 <= 0
 cc_alt_vars_4 <= 0
 cc_alt_vars_12 <= 0
 cc_alt_vars_23 <= 0
 cc_alt_vars_18 <= 0
 cc_alt_vars_10 <= 0
 cc_alt_vars_17 <= 0
Scenario 68
Bounds
 cc_alt_vars_1 <= 0
 cc_alt_vars_7 <= 0
 cc_alt_vars_15 <= 0
 cc_alt_vars_19 <= 0
 cc_alt_vars_2 <= 0
 cc_alt_vars_6 <= 0
 cc_alt_vars_13 <= 0
 cc_alt_vars_21 <= 0
 cc_alt_vars_11 <= 0
 cc_alt_vars_4 <= 0
 cc_alt_vars_12 <= 0
 cc_alt_vars_5 <= 0
 cc_alt_vars_23 <= 0
 cc_alt_vars_18 <= 0
 cc_alt_vars_10 <= 0
 cc_alt_vars_17 <= 0
Scenario 69
Bounds
 cc_alt_vars_7 <= 0
 cc_alt_vars_15 <= 0
 cc_alt_vars_19 <= 0
 cc_alt_vars_2 <= 0
 cc_alt_vars_0 <= 0
 cc_alt_vars_6 <= 0
 cc_alt_vars_13 <= 0
 cc_alt_vars_21 <= 0
 cc_alt_vars_11 <= 0
 cc_alt_vars_4 <= 0
 cc_alt_vars_12 <= 0
 cc_alt_vars_5 <= 0
 cc_alt_vars_23 <= 0
 cc_alt_vars_18 <= 0
 cc_alt_vars_10 <= 0
 cc_alt_vars_17 <= 0
Scenario 70
Bounds
 cc_alt_vars_1 <= 0
 cc_alt_vars_7 <= 0
 cc_alt_vars_15 <= 0
 cc_alt_vars_19 <= 0
 cc_alt_vars_0 <= 0
 cc_alt_vars_6 <= 0
 cc_alt_vars_13 <= 0
 cc_alt_vars_21 <= 0
 cc_alt_vars_11 <= 0
 cc_alt_vars_4 <= 0
 cc_alt_vars_12 <= 0
 cc_alt_vars_5 <= 0
 cc_alt_vars_23 <= 0
 cc_alt_vars_18 <= 0
 cc_alt_vars_10 <= 0
 cc_alt_vars_17 <= 0
Scenario 71
Bounds
 cc_alt_vars_1 <= 0
 cc_alt_vars_7 <= 0
 cc_alt_vars_15 <= 0
 cc_alt_vars_19 <= 0
 cc_alt_vars_2 <= 0
 cc_alt_vars_6 <= 0
 cc_alt_vars_3 <= 0
 cc_alt_vars_13 <= 0
 cc_alt_vars_21 <= 0
 cc_alt_vars_11 <= 0
 cc_alt_vars_12 <= 0
 cc_alt_vars_5 <= 0
 cc_alt_vars_23 <= 0
 cc_alt_vars_18 <= 0
 cc_alt_vars_10 <= 0
 cc_alt_vars_17 <= 0
Scenario 72
Bounds
 cc_alt_vars_7 <= 0
 cc_alt_vars_15 <= 0
 cc_alt_vars_19 <= 0
 cc_alt_vars_2 <= 0
 cc_alt_vars_0 <= 0
 cc_alt_vars_6 <= 0
 cc_alt_vars_3 <= 0
 cc_alt_vars_13 <= 0
 cc_alt_vars_21 <= 0
 cc_alt_vars_11 <= 0
 cc_alt_vars_12 <= 0
 cc_alt_vars_5 <= 0
 cc_alt_vars_23 <= 0
 cc_alt_vars_18 <= 0
 cc_alt_vars_10 <= 0
 cc_alt_vars_17 <= 0
Scenario 73
Bounds
 cc_alt_vars_1 <= 0
 cc_alt_vars_7 <= 0
 cc_alt_vars_15 <= 0
 cc_alt_vars_19 <= 0
 cc_alt_vars_0 <= 0
 cc_alt_vars_6 <= 0
 cc_alt_vars_3 <= 0
 cc_alt_vars_13 <= 0
 cc_alt_vars_21 <= 0
 cc_alt_vars_11 <= 0
 cc_alt_vars_12 <= 0
 cc_alt_vars_5 <= 0
 cc_alt_vars_23 <= 0
 cc_alt_vars_18 <= 0
 cc_alt_vars_10 <= 0
 cc_alt_vars_17 <= 0
Scenario 74
Bounds
 cc_alt_vars_1 <= 0
 cc_alt_vars_7 <= 0
 cc_alt_vars_15 <= 0
 cc_alt_vars_19 <= 0
 cc_alt_vars_2 <= 0
 cc_alt_vars_6 <= 0
 cc_alt_vars_3 <= 0
 cc_alt_vars_13 <= 0
 cc_alt_vars_21 <= 0
 cc_alt_vars_11 <= 0
 cc_alt_vars_4 <= 0
 cc_alt_vars_12 <= 0
 cc_alt_vars_23 <= 0
 cc_alt_vars_18 <= 0
 cc_alt_vars_10 <= 0
 cc_alt_vars_17 <= 0
Scenario 75
Bounds
 cc_alt_vars_7 <= 0
 cc_alt_vars_15 <= 0
 cc_alt_vars_19 <= 0
 cc_alt_vars_2 <= 0
 cc_alt_vars_0 <= 0
 cc_alt_vars_6 <= 0
 cc_alt_vars_3 <= 0
 cc_alt_vars_13 <= 0
 cc_alt_vars_21 <= 0
 cc_alt_vars_11 <= 0
 cc_alt_vars_4 <= 0
 cc_alt_vars_12 <= 0
 cc_alt_vars_23 <= 0
 cc_alt_vars_18 <= 0
 cc_alt_vars_10 <= 0
 cc_alt_vars_17 <= 0
Scenario 76
Bounds
 cc_alt_vars_1 <= 0
 cc_alt_vars_7 <= 0
 cc_alt_vars_15 <= 0
 cc_alt_vars_19 <= 0
 cc_alt_vars_0 <= 0
 cc_alt_vars_6 <= 0
 cc_alt_vars_3 <= 0
 cc_alt_vars_13 <= 0
 cc_alt_vars_21 <= 0
 cc_alt_vars_11 <= 0
 cc_alt_vars_4 <= 0
 cc_alt_vars_12 <= 0
 cc_alt_vars_23 <= 0
 cc_alt_vars_18 <= 0
 cc_alt_vars_10 <= 0
 cc_alt_vars_17 <= 0
Scenario 77
Bounds
 cc_alt_vars_1 <= 0
 cc_alt_vars_9 <= 0
 cc_alt_vars_8 <= 0
 cc_alt_vars_7 <= 0
 cc_alt_vars_15 <= 0
 cc_alt_vars_19 <= 0
 cc_alt_vars_2 <= 0
 cc_alt_vars_13 <= 0
 cc_alt_vars_21 <= 0
 cc_alt_vars_11 <= 0
 cc_alt_vars_4 <= 0
 cc_alt_vars_12 <= 0
 cc_alt_vars_5 <= 0
 cc_alt_vars_23 <= 0
 cc_alt_vars_18 <= 0
 cc_alt_vars_17 <= 0
Scenario 78
Bounds
 cc_alt_vars_9 <= 0
 cc_alt_vars_8 <= 0
 cc_alt_vars_7 <= 0
 cc_alt_vars_15 <= 0
 cc_alt_vars_19 <= 0
 cc_alt_vars_2 <= 0
 cc_alt_vars_0 <= 0
 cc_alt_vars_13 <= 0
 cc_alt_vars_21 <= 0
 cc_alt_vars_11 <= 0
 cc_alt_vars_4 <= 0
 cc_alt_vars_12 <= 0
 cc_alt_vars_5 <= 0
 cc_alt_vars_23 <= 0
 cc_alt_vars_18 <= 0
 cc_alt_vars_17 <= 0
Scenario 79
Bounds
 cc_alt_vars_1 <= 0
 cc_alt_vars_9 <= 0
 cc_alt_vars_8 <= 0
 cc_alt_vars_7 <= 0
 cc_alt_vars_15 <= 0
 cc_alt_vars_19 <= 0
 cc_alt_vars_0 <= 0
 cc_alt_vars_13 <= 0
 cc_alt_vars_21 <= 0
 cc_alt_vars_11 <= 0
 cc_alt_vars_4 <= 0
 cc_alt_vars_12 <= 0
 cc_alt_vars_5 <= 0
 cc_alt_vars_23 <= 0
 cc_alt_vars_18 <= 0
 cc_alt_vars_17 <= 0
Scenario 80
Bounds
 cc_alt_vars_1 <= 0
 cc_alt_vars_9 <= 0
 cc_alt_vars_8 <= 0
 cc_alt_vars_7 <= 0
 cc_alt_vars_15 <= 0
 cc_alt_vars_19 <= 0
 cc_alt_vars_2 <= 0
 cc_alt_vars_3 <= 0
 cc_alt_vars_13 <= 0
 cc_alt_vars_21 <= 0
 cc_alt_vars_11 <= 0
 cc_alt_vars_12 <= 0
 cc_alt_vars_5 <= 0
 cc_alt_vars_23 <= 0
 cc_alt_vars_18 <= 0
 cc_alt_vars_17 <= 0
Scenario 81
Bounds
 cc_alt_vars_9 <= 0
 cc_alt_vars_8 <= 0
 cc_alt_vars_7 <= 0
 cc_alt_vars_15 <= 0
 cc_alt_vars_19 <= 0
 cc_alt_vars_2 <= 0
 cc_alt_vars_0 <= 0
 cc_alt_vars_3 <= 0
 cc_alt_vars_13 <= 0
 cc_alt_vars_21 <= 0
 cc_alt_vars_11 <= 0
 cc_alt_vars_12 <= 0
 cc_alt_vars_5 <= 0
 cc_alt_vars_23 <= 0
 cc_alt_vars_18 <= 0
 cc_alt_vars_17 <= 0
Scenario 82
Bounds
 cc_alt_vars_1 <= 0
 cc_alt_vars_9 <= 0
 cc_alt_vars_8 <= 0
 cc_alt_vars_7 <= 0
 cc_alt_vars_15 <= 0
 cc_alt_vars_19 <= 0
 cc_alt_vars_0 <= 0
 cc_alt_vars_3 <= 0
 cc_alt_vars_13 <= 0
 cc_alt_vars_21 <= 0
 cc_alt_vars_11 <= 0
 cc_alt_vars_12 <= 0
 cc_alt_vars_5 <= 0
 cc_alt_vars_23 <= 0
 cc_alt_vars_18 <= 0
 cc_alt_vars_17 <= 0
Scenario 83
Bounds
 cc_alt_vars_1 <= 0
 cc_alt_vars_9 <= 0
 cc_alt_vars_8 <= 0
 cc_alt_vars_7 <= 0
 cc_alt_vars_15 <= 0
 cc_alt_vars_19 <= 0
 cc_alt_vars_2 <= 0
 cc_alt_vars_3 <= 0
 cc_alt_vars_13 <= 0
 cc_alt_vars_21 <= 0
 cc_alt_vars_11 <= 0
 cc_alt_vars_4 <= 0
 cc_alt_vars_12 <= 0
 cc_alt_vars_23 <= 0
 cc_alt_vars_18 <= 0
 cc_alt_vars_17 <= 0
Scenario 84
Bounds
 cc_alt_vars_9 <= 0
 cc_alt_vars_8 <= 0
 cc_alt_vars_7 <= 0
 cc_alt_vars_15 <= 0
 cc_alt_vars_19 <= 0
 cc_alt_vars_2 <= 0
 cc_alt_vars_0 <= 0
 cc_alt_vars_3 <= 0
 cc_alt_vars_13 <= 0
 cc_alt_vars_21 <= 0
 cc_alt_vars_11 <= 0
 cc_alt_vars_4 <= 0
 cc_alt_vars_12 <= 0
 cc_alt_vars_23 <= 0
 cc_alt_vars_18 <= 0
 cc_alt_vars_17 <= 0
Scenario 85
Bounds
 cc_alt_vars_1 <= 0
 cc_alt_vars_9 <= 0
 cc_alt_vars_8 <= 0
 cc_alt_vars_7 <= 0
 cc_alt_vars_15 <= 0
 cc_alt_vars_19 <= 0
 cc_alt_vars_0 <= 0
 cc_alt_vars_3 <= 0
 cc_alt_vars_13 <= 0
 cc_alt_vars_21 <= 0
 cc_alt_vars_11 <= 0
 cc_alt_vars_4 <= 0
 cc_alt_vars_12 <= 0
 cc_alt_vars_23 <= 0
 cc_alt_vars_18 <= 0
 cc_alt_vars_17 <= 0
Scenario 86
Bounds
 cc_alt_vars_1 <= 0
 cc_alt_vars_9 <= 0
 cc_alt_vars_8 <= 0
 cc_alt_vars_15 <= 0
 cc_alt_vars_19 <= 0
 cc_alt_vars_2 <= 0
 cc_alt_vars_6 <= 0
 cc_alt_vars_13 <= 0
 cc_alt_vars_21 <= 0
 cc_alt_vars_11 <= 0
 cc_alt_vars_4 <= 0
 cc_alt_vars_12 <= 0
 cc_alt_vars_5 <= 0
 cc_alt_vars_23 <= 0
 cc_alt_vars_18 <= 0
 cc_alt_vars_17 <= 0
Scenario 87
Bounds
 cc_alt_vars_9 <= 0
 cc_alt_vars_8 <= 0
 cc_alt_vars_15 <= 0
 cc_alt_vars_19 <= 0
 cc_alt_vars_2 <= 0
 cc_alt_vars_0 <= 0
 cc_alt_vars_6 <= 0
 cc_alt_vars_13 <= 0
 cc_alt_vars_21 <= 0
 cc_alt_vars_11 <= 0
 cc_alt_vars_4 <= 0
 cc_alt_vars_12 <= 0
 cc_alt_vars_5 <= 0
 cc_alt_vars_23 <= 0
 cc_alt_vars_18 <= 0
 cc_alt_vars_17 <= 0
Scenario 88
Bounds
 cc_alt_vars_1 <= 0
 cc_alt_vars_9 <= 0
 cc_alt_vars_8 <= 0
 cc_alt_vars_15 <= 0
 cc_alt_vars_19 <= 0
 cc_alt_vars_0 <= 0
 cc_alt_vars_6 <= 0
 cc_alt_vars_13 <= 0
 cc_alt_vars_21 <= 0
 cc_alt_vars_11 <= 0
 cc_alt_vars_4 <= 0
 cc_alt_vars_12 <= 0
 cc_alt_vars_5 <= 0
 cc_alt_vars_23 <= 0
 cc_alt_vars_18 <= 0
 cc_alt_vars_17 <= 0
Scenario 89
Bounds
 cc_alt_vars_1 <= 0
 cc_alt_vars_9 <= 0
 cc_alt_vars_8 <= 0
 cc_alt_vars_15 <= 0
 cc_alt_vars_19 <= 0
 cc_alt_vars_2 <= 0
 cc_alt_vars_6 <= 0
 cc_alt_vars_3 <= 0
 cc_alt_vars_13 <= 0
 cc_alt_vars_21 <= 0
 cc_alt_vars_11 <= 0
 cc_alt_vars_12 <= 0
 cc_alt_vars_5 <= 0
 cc_alt_vars_23 <= 0
 cc_alt_vars_18 <= 0
 cc_alt_vars_17 <= 0
Scenario 90
Bounds
 cc_alt_vars_9 <= 0
 cc_alt_vars_8 <= 0
 cc_alt_vars_15 <= 0
 cc_alt_vars_19 <= 0
 cc_alt_vars_2 <= 0
 cc_alt_vars_0 <= 0
 cc_alt_vars_6 <= 0
 cc_alt_vars_3 <= 0
 cc_alt_vars_13 <= 0
 cc_alt_vars_21 <= 0
 cc_alt_vars_11 <= 0
 cc_alt_vars_12 <= 0
 cc_alt_vars_5 <= 0
 cc_alt_vars_23 <= 0
 cc_alt_vars_18 <= 0
 cc_alt_vars_17 <= 0
Scenario 91
Bounds
 cc_alt_vars_1 <= 0
 cc_alt_vars_9 <= 0
 cc_alt_vars_8 <= 0
 cc_alt_vars_15 <= 0
 cc_alt_vars_19 <= 0
 cc_alt_vars_0 <= 0
 cc_alt_vars_6 <= 0
 cc_alt_vars_3 <= 0
 cc_alt_vars_13 <= 0
 cc_alt_vars_21 <= 0
 cc_alt_vars_11 <= 0
 cc_alt_vars_12 <= 0
 cc_alt_vars_5 <= 0
 cc_alt_vars_23 <= 0
 cc_alt_vars_18 <= 0
 cc_alt_vars_17 <= 0
Scenario 92
Bounds
 cc_alt_vars_1 <= 0
 cc_alt_vars_9 <= 0
 cc_alt_vars_8 <= 0
 cc_alt_vars_15 <= 0
 cc_alt_vars_19 <= 0
 cc_alt_vars_2 <= 0
 cc_alt_vars_6 <= 0
 cc_alt_vars_3 <= 0
 cc_alt_vars_13 <= 0
 cc_alt_vars_21 <= 0
 cc_alt_vars_11 <= 0
 cc_alt_vars_4 <= 0
 cc_alt_vars_12 <= 0
 cc_alt_vars_23 <= 0
 cc_alt_vars_18 <= 0
 cc_alt_vars_17 <= 0
Scenario 93
Bounds
 cc_alt_vars_9 <= 0
 cc_alt_vars_8 <= 0
 cc_alt_vars_15 <= 0
 cc_alt_vars_19 <= 0
 cc_alt_vars_2 <= 0
 cc_alt_vars_0 <= 0
 cc_alt_vars_6 <= 0
 cc_alt_vars_3 <= 0
 cc_alt_vars_13 <= 0
 cc_alt_vars_21 <= 0
 cc_alt_vars_11 <= 0
 cc_alt_vars_4 <= 0
 cc_alt_vars_12 <= 0
 cc_alt_vars_23 <= 0
 cc_alt_vars_18 <= 0
 cc_alt_vars_17 <= 0
Scenario 94
Bounds
 cc_alt_vars_1 <= 0
 cc_alt_vars_9 <= 0
 cc_alt_vars_8 <= 0
 cc_alt_vars_15 <= 0
 cc_alt_vars_19 <= 0
 cc_alt_vars_0 <= 0
 cc_alt_vars_6 <= 0
 cc_alt_vars_3 <= 0
 cc_alt_vars_13 <= 0
 cc_alt_vars_21 <= 0
 cc_alt_vars_11 <= 0
 cc_alt_vars_4 <= 0
 cc_alt_vars_12 <= 0
 cc_alt_vars_23 <= 0
 cc_alt_vars_18 <= 0
 cc_alt_vars_17 <= 0
Scenario 95
Bounds
 cc_alt_vars_1 <= 0
 cc_alt_vars_9 <= 0
 cc_alt_vars_7 <= 0
 cc_alt_vars_15 <= 0
 cc_alt_vars_19 <= 0
 cc_alt_vars_2 <= 0
 cc_alt_vars_6 <= 0
 cc_alt_vars_13 <= 0
 cc_alt_vars_21 <= 0
 cc_alt_vars_11 <= 0
 cc_alt_vars_4 <= 0
 cc_alt_vars_12 <= 0
 cc_alt_vars_5 <= 0
 cc_alt_vars_23 <= 0
 cc_alt_vars_18 <= 0
 cc_alt_vars_17 <= 0
Scenario 96
Bounds
 cc_alt_vars_9 <= 0
 cc_alt_vars_7 <= 0
 cc_alt_vars_15 <= 0
 cc_alt_vars_19 <= 0
 cc_alt_vars_2 <= 0
 cc_alt_vars_0 <= 0
 cc_alt_vars_6 <= 0
 cc_alt_vars_13 <= 0
 cc_alt_vars_21 <= 0
 cc_alt_vars_11 <= 0
 cc_alt_vars_4 <= 0
 cc_alt_vars_12 <= 0
 cc_alt_vars_5 <= 0
 cc_alt_vars_23 <= 0
 cc_alt_vars_18 <= 0
 cc_alt_vars_17 <= 0
Scenario 97
Bounds
 cc_alt_vars_1 <= 0
 cc_alt_vars_9 <= 0
 cc_alt_vars_7 <= 0
 cc_alt_vars_15 <= 0
 cc_alt_vars_19 <= 0
 cc_alt_vars_0 <= 0
 cc_alt_vars_6 <= 0
 cc_alt_vars_13 <= 0
 cc_alt_vars_21 <= 0
 cc_alt_vars_11 <= 0
 cc_alt_vars_4 <= 0
 cc_alt_vars_12 <= 0
 cc_alt_vars_5 <= 0
 cc_alt_vars_23 <= 0
 cc_alt_vars_18 <= 0
 cc_alt_vars_17 <= 0
Scenario 98
Bounds
 cc_alt_vars_1 <= 0
 cc_alt_vars_9 <= 0
 cc_alt_vars_7 <= 0
 cc_alt_vars_15 <= 0
 cc_alt_vars_19 <= 0
 cc_alt_vars_2 <= 0
 cc_alt_vars_6 <= 0
 cc_alt_vars_3 <= 0
 cc_alt_vars_13 <= 0
 cc_alt_vars_21 <= 0
 cc_alt_vars_11 <= 0
 cc_alt_vars_12 <= 0
 cc_alt_vars_5 <= 0
 cc_alt_vars_23 <= 0
 cc_alt_vars_18 <= 0
 cc_alt_vars_17 <= 0
Scenario 99
Bounds
 cc_alt_vars_9 <= 0
 cc_alt_vars_7 <= 0
 cc_alt_vars_15 <= 0
 cc_alt_vars_19 <= 0
 cc_alt_vars_2 <= 0
 cc_alt_vars_0 <= 0
 cc_alt_vars_6 <= 0
 cc_alt_vars_3 <= 0
 cc_alt_vars_13 <= 0
 cc_alt_vars_21 <= 0
 cc_alt_vars_11 <= 0
 cc_alt_vars_12 <= 0
 cc_alt_vars_5 <= 0
 cc_alt_vars_23 <= 0
 cc_alt_vars_18 <= 0
 cc_alt_vars_17 <= 0
Scenario 100
Bounds
 cc_alt_vars_1 <= 0
 cc_alt_vars_9 <= 0
 cc_alt_vars_7 <= 0
 cc_alt_vars_15 <= 0
 cc_alt_vars_19 <= 0
 cc_alt_vars_0 <= 0
 cc_alt_vars_6 <= 0
 cc_alt_vars_3 <= 0
 cc_alt_vars_13 <= 0
 cc_alt_vars_21 <= 0
 cc_alt_vars_11 <= 0
 cc_alt_vars_12 <= 0
 cc_alt_vars_5 <= 0
 cc_alt_vars_23 <= 0
 cc_alt_vars_18 <= 0
 cc_alt_vars_17 <= 0
Scenario 101
Bounds
 cc_alt_vars_1 <= 0
 cc_alt_vars_9 <= 0
 cc_alt_vars_7 <= 0
 cc_alt_vars_15 <= 0
 cc_alt_vars_19 <= 0
 cc_alt_vars_2 <= 0
 cc_alt_vars_6 <= 0
 cc_alt_vars_3 <= 0
 cc_alt_vars_13 <= 0
 cc_alt_vars_21 <= 0
 cc_alt_vars_11 <= 0
 cc_alt_vars_4 <= 0
 cc_alt_vars_12 <= 0
 cc_alt_vars_23 <= 0
 cc_alt_vars_18 <= 0
 cc_alt_vars_17 <= 0
Scenario 102
Bounds
 cc_alt_vars_9 <= 0
 cc_alt_vars_7 <= 0
 cc_alt_vars_15 <= 0
 cc_alt_vars_19 <= 0
 cc_alt_vars_2 <= 0
 cc_alt_vars_0 <= 0
 cc_alt_vars_6 <= 0
 cc_alt_vars_3 <= 0
 cc_alt_vars_13 <= 0
 cc_alt_vars_21 <= 0
 cc_alt_vars_11 <= 0
 cc_alt_vars_4 <= 0
 cc_alt_vars_12 <= 0
 cc_alt_vars_23 <= 0
 cc_alt_vars_18 <= 0
 cc_alt_vars_17 <= 0
Scenario 103
Bounds
 cc_alt_vars_1 <= 0
 cc_alt_vars_9 <= 0
 cc_alt_vars_7 <= 0
 cc_alt_vars_15 <= 0
 cc_alt_vars_19 <= 0
 cc_alt_vars_0 <= 0
 cc_alt_vars_6 <= 0
 cc_alt_vars_3 <= 0
 cc_alt_vars_13 <= 0
 cc_alt_vars_21 <= 0
 cc_alt_vars_11 <= 0
 cc_alt_vars_4 <= 0
 cc_alt_vars_12 <= 0
 cc_alt_vars_23 <= 0
 cc_alt_vars_18 <= 0
 cc_alt_vars_17 <= 0
Scenario 104
Bounds
 cc_alt_vars_1 <= 0
 cc_alt_vars_9 <= 0
 cc_alt_vars_8 <= 0
 cc_alt_vars_7 <= 0
 cc_alt_vars_15 <= 0
 cc_alt_vars_19 <= 0
 cc_alt_vars_2 <= 0
 cc_alt_vars_13 <= 0
 cc_alt_vars_21 <= 0
 cc_alt_vars_4 <= 0
 cc_alt_vars_12 <= 0
 cc_alt_vars_5 <= 0
 cc_alt_vars_23 <= 0
 cc_alt_vars_18 <= 0
 cc_alt_vars_10 <= 0
 cc_alt_vars_17 <= 0
Scenario 105
Bounds
 cc_alt_vars_9 <= 0
 cc_alt_vars_8 <= 0
 cc_alt_vars_7 <= 0
 cc_alt_vars_15 <= 0
 cc_alt_vars_19 <= 0
 cc_alt_vars_2 <= 0
 cc_alt_vars_0 <= 0
 cc_alt_vars_13 <= 0
 cc_alt_vars_21 <= 0
 cc_alt_vars_4 <= 0
 cc_alt_vars_12 <= 0
 cc_alt_vars_5 <= 0
 cc_alt_vars_23 <= 0
 cc_alt_vars_18 <= 0
 cc_alt_vars_10 <= 0
 cc_alt_vars_17 <= 0
Scenario 106
Bounds
 cc_alt_vars_1 <= 0
 cc_alt_vars_9 <= 0
 cc_alt_vars_8 <= 0
 cc_alt_vars_7 <= 0
 cc_alt_vars_15 <= 0
 cc_alt_vars_19 <= 0
 cc_alt_vars_0 <= 0
 cc_alt_vars_13 <= 0
 cc_alt_vars_21 <= 0
 cc_alt_vars_4 <= 0
 cc_alt_vars_12 <= 0
 cc_alt_vars_5 <= 0
 cc_alt_vars_23 <= 0
 cc_alt_vars_18 <= 0
 cc_alt_vars_10 <= 0
 cc_alt_vars_17 <= 0
Scenario 107
Bounds
 cc_alt_vars_1 <= 0
 cc_alt_vars_9 <= 0
 cc_alt_vars_8 <= 0
 cc_alt_vars_7 <= 0
 cc_alt_vars_15 <= 0
 cc_alt_vars_19 <= 0
 cc_alt_vars_2 <= 0
 cc_alt_vars_3 <= 0
 cc_alt_vars_13 <= 0
 cc_alt_vars_21 <= 0
 cc_alt_vars_12 <= 0
 cc_alt_vars_5 <= 0
 cc_alt_vars_23 <= 0
 cc_alt_vars_18 <= 0
 cc_alt_vars_10 <= 0
 cc_alt_vars_17 <= 0
Scenario 108
Bounds
 cc_alt_vars_9 <= 0
 cc_alt_vars_8 <= 0
 cc_alt_vars_7 <= 0
 cc_alt_vars_15 <= 0
 cc_alt_vars_19 <= 0
 cc_alt_vars_2 <= 0
 cc_alt_vars_0 <= 0
 cc_alt_vars_3 <= 0
 cc_alt_vars_13 <= 0
 cc_alt_vars_21 <= 0
 cc_alt_vars_12 <= 0
 cc_alt_vars_5 <= 0
 cc_alt_vars_23 <= 0
 cc_alt_vars_18 <= 0
 cc_alt_vars_10 <= 0
 cc_alt_vars_17 <= 0
Scenario 109
Bounds
 cc_alt_vars_1 <= 0
 cc_alt_vars_9 <= 0
 cc_alt_vars_8 <= 0
 cc_alt_vars_7 <= 0
 cc_alt_vars_15 <= 0
 cc_alt_vars_19 <= 0
 cc_alt_vars_0 <= 0
 cc_alt_vars_3 <= 0
 cc_alt_vars_13 <= 0
 cc_alt_vars_21 <= 0
 cc_alt_vars_12 <= 0
 cc_alt_vars_5 <= 0
 cc_alt_vars_23 <= 0
 cc_alt_vars_18 <= 0
 cc_alt_vars_10 <= 0
 cc_alt_vars_17 <= 0
Scenario 110
Bounds
 cc_alt_vars_1 <= 0
 cc_alt_vars_9 <= 0
 cc_alt_vars_8 <= 0
 cc_alt_vars_7 <= 0
 cc_alt_vars_15 <= 0
 cc_alt_vars_19 <= 0
 cc_alt_vars_2 <= 0
 cc_alt_vars_3 <= 0
 cc_alt_vars_13 <= 0
 cc_alt_vars_21 <= 0
 cc_alt_vars_4 <= 0
 cc_alt_vars_12 <= 0
 cc_alt_vars_23 <= 0
 cc_alt_vars_18 <= 0
 cc_alt_vars_10 <= 0
 cc_alt_vars_17 <= 0
Scenario 111
Bounds
 cc_alt_vars_9 <= 0
 cc_alt_vars_8 <= 0
 cc_alt_vars_7 <= 0
 cc_alt_vars_15 <= 0
 cc_alt_vars_19 <= 0
 cc_alt_vars_2 <= 0
 cc_alt_vars_0 <= 0
 cc_alt_vars_3 <= 0
 cc_alt_vars_13 <= 0
 cc_alt_vars_21 <= 0
 cc_alt_vars_4 <= 0
 cc_alt_vars_12 <= 0
 cc_alt_vars_23 <= 0
 cc_alt_vars_18 <= 0
 cc_alt_vars_10 <= 0
 cc_alt_vars_17 <= 0
Scenario 112
Bounds
 cc_alt_vars_1 <= 0
 cc_alt_vars_9 <= 0
 cc_alt_vars_8 <= 0
 cc_alt_vars_7 <= 0
 cc_alt_vars_15 <= 0
 cc_alt_vars_19 <= 0
 cc_alt_vars_0 <= 0
 cc_alt_vars_3 <= 0
 cc_alt_vars_13 <= 0
 cc_alt_vars_21 <= 0
 cc_alt_vars_4 <= 0
 cc_alt_vars_12 <= 0
 cc_alt_vars_23 <= 0
 cc_alt_vars_18 <= 0
 cc_alt_vars_10 <= 0
 cc_alt_vars_17 <= 0
Scenario 113
Bounds
 cc_alt_vars_1 <= 0
 cc_alt_vars_9 <= 0
 cc_alt_vars_8 <= 0
 cc_alt_vars_15 <= 0
 cc_alt_vars_19 <= 0
 cc_alt_vars_2 <= 0
 cc_alt_vars_6 <= 0
 cc_alt_vars_13 <= 0
 cc_alt_vars_21 <= 0
 cc_alt_vars_4 <= 0
 cc_alt_vars_12 <= 0
 cc_alt_vars_5 <= 0
 cc_alt_vars_23 <= 0
 cc_alt_vars_18 <= 0
 cc_alt_vars_10 <= 0
 cc_alt_vars_17 <= 0
Scenario 114
Bounds
 cc_alt_vars_9 <= 0
 cc_alt_vars_8 <= 0
 cc_alt_vars_15 <= 0
 cc_alt_vars_19 <= 0
 cc_alt_vars_2 <= 0
 cc_alt_vars_0 <= 0
 cc_alt_vars_6 <= 0
 cc_alt_vars_13 <= 0
 cc_alt_vars_21 <= 0
 cc_alt_vars_4 <= 0
 cc_alt_vars_12 <= 0
 cc_alt_vars_5 <= 0
 cc_alt_vars_23 <= 0
 cc_alt_vars_18 <= 0
 cc_alt_vars_10 <= 0
 cc_alt_vars_17 <= 0
Scenario 115
Bounds
 cc_alt_vars_1 <= 0
 cc_alt_vars_9 <= 0
 cc_alt_vars_8 <= 0
 cc_alt_vars_15 <= 0
 cc_alt_vars_19 <= 0
 cc_alt_vars_0 <= 0
 cc_alt_vars_6 <= 0
 cc_alt_vars_13 <= 0
 cc_alt_vars_21 <= 0
 cc_alt_vars_4 <= 0
 cc_alt_vars_12 <= 0
 cc_alt_vars_5 <= 0
 cc_alt_vars_23 <= 0
 cc_alt_vars_18 <= 0
 cc_alt_vars_10 <= 0
 cc_alt_vars_17 <= 0
Scenario 116
Bounds
 cc_alt_vars_1 <= 0
 cc_alt_vars_9 <= 0
 cc_alt_vars_8 <= 0
 cc_alt_vars_15 <= 0
 cc_alt_vars_19 <= 0
 cc_alt_vars_2 <= 0
 cc_alt_vars_6 <= 0
 cc_alt_vars_3 <= 0
 cc_alt_vars_13 <= 0
 cc_alt_vars_21 <= 0
 cc_alt_vars_12 <= 0
 cc_alt_vars_5 <= 0
 cc_alt_vars_23 <= 0
 cc_alt_vars_18 <= 0
 cc_alt_vars_10 <= 0
 cc_alt_vars_17 <= 0
Scenario 117
Bounds
 cc_alt_vars_9 <= 0
 cc_alt_vars_8 <= 0
 cc_alt_vars_15 <= 0
 cc_alt_vars_19 <= 0
 cc_alt_vars_2 <= 0
 cc_alt_vars_0 <= 0
 cc_alt_vars_6 <= 0
 cc_alt_vars_3 <= 0
 cc_alt_vars_13 <= 0
 cc_alt_vars_21 <= 0
 cc_alt_vars_12 <= 0
 cc_alt_vars_5 <= 0
 cc_alt_vars_23 <= 0
 cc_alt_vars_18 <= 0
 cc_alt_vars_10 <= 0
 cc_alt_vars_17 <= 0
Scenario 118
Bounds
 cc_alt_vars_1 <= 0
 cc_alt_vars_9 <= 0
 cc_alt_vars_8 <= 0
 cc_alt_vars_15 <= 0
 cc_alt_vars_19 <= 0
 cc_alt_vars_0 <= 0
 cc_alt_vars_6 <= 0
 cc_alt_vars_3 <= 0
 cc_alt_vars_13 <= 0
 cc_alt_vars_21 <= 0
 cc_alt_vars_12 <= 0
 cc_alt_vars_5 <= 0
 cc_alt_vars_23 <= 0
 cc_alt_vars_18 <= 0
 cc_alt_vars_10 <= 0
 cc_alt_vars_17 <= 0
Scenario 119
Bounds
 cc_alt_vars_1 <= 0
 cc_alt_vars_9 <= 0
 cc_alt_vars_8 <= 0
 cc_alt_vars_15 <= 0
 cc_alt_vars_19 <= 0
 cc_alt_vars_2 <= 0
 cc_alt_vars_6 <= 0
 cc_alt_vars_3 <= 0
 cc_alt_vars_13 <= 0
 cc_alt_vars_21 <= 0
 cc_alt_vars_4 <= 0
 cc_alt_vars_12 <= 0
 cc_alt_vars_23 <= 0
 cc_alt_vars_18 <= 0
 cc_alt_vars_10 <= 0
 cc_alt_vars_17 <= 0
Scenario 120
Bounds
 cc_alt_vars_9 <= 0
 cc_alt_vars_8 <= 0
 cc_alt_vars_15 <= 0
 cc_alt_vars_19 <= 0
 cc_alt_vars_2 <= 0
 cc_alt_vars_0 <= 0
 cc_alt_vars_6 <= 0
 cc_alt_vars_3 <= 0
 cc_alt_vars_13 <= 0
 cc_alt_vars_21 <= 0
 cc_alt_vars_4 <= 0
 cc_alt_vars_12 <= 0
 cc_alt_vars_23 <= 0
 cc_alt_vars_18 <= 0
 cc_alt_vars_10 <= 0
 cc_alt_vars_17 <= 0
Scenario 121
Bounds
 cc_alt_vars_1 <= 0
 cc_alt_vars_9 <= 0
 cc_alt_vars_8 <= 0
 cc_alt_vars_15 <= 0
 cc_alt_vars_19 <= 0
 cc_alt_vars_0 <= 0
 cc_alt_vars_6 <= 0
 cc_alt_vars_3 <= 0
 cc_alt_vars_13 <= 0
 cc_alt_vars_21 <= 0
 cc_alt_vars_4 <= 0
 cc_alt_vars_12 <= 0
 cc_alt_vars_23 <= 0
 cc_alt_vars_18 <= 0
 cc_alt_vars_10 <= 0
 cc_alt_vars_17 <= 0
Scenario 122
Bounds
 cc_alt_vars_1 <= 0
 cc_alt_vars_9 <= 0
 cc_alt_vars_7 <= 0
 cc_alt_vars_15 <= 0
 cc_alt_vars_19 <= 0
 cc_alt_vars_2 <= 0
 cc_alt_vars_6 <= 0
 cc_alt_vars_13 <= 0
 cc_alt_vars_21 <= 0
 cc_alt_vars_4 <= 0
 cc_alt_vars_12 <= 0
 cc_alt_vars_5 <= 0
 cc_alt_vars_23 <= 0
 cc_alt_vars_18 <= 0
 cc_alt_vars_10 <= 0
 cc_alt_vars_17 <= 0
Scenario 123
Bounds
 cc_alt_vars_9 <= 0
 cc_alt_vars_7 <= 0
 cc_alt_vars_15 <= 0
 cc_alt_vars_19 <= 0
 cc_alt_vars_2 <= 0
 cc_alt_vars_0 <= 0
 cc_alt_vars_6 <= 0
 cc_alt_vars_13 <= 0
 cc_alt_vars_21 <= 0
 cc_alt_vars_4 <= 0
 cc_alt_vars_12 <= 0
 cc_alt_vars_5 <= 0
 cc_alt_vars_23 <= 0
 cc_alt_vars_18 <= 0
 cc_alt_vars_10 <= 0
 cc_alt_vars_17 <= 0
Scenario 124
Bounds
 cc_alt_vars_1 <= 0
 cc_alt_vars_9 <= 0
 cc_alt_vars_7 <= 0
 cc_alt_vars_15 <= 0
 cc_alt_vars_19 <= 0
 cc_alt_vars_0 <= 0
 cc_alt_vars_6 <= 0
 cc_alt_vars_13 <= 0
 cc_alt_vars_21 <= 0
 cc_alt_vars_4 <= 0
 cc_alt_vars_12 <= 0
 cc_alt_vars_5 <= 0
 cc_alt_vars_23 <= 0
 cc_alt_vars_18 <= 0
 cc_alt_vars_10 <= 0
 cc_alt_vars_17 <= 0
Scenario 125
Bounds
 cc_alt_vars_1 <= 0
 cc_alt_vars_9 <= 0
 cc_alt_vars_7 <= 0
 cc_alt_vars_15 <= 0
 cc_alt_vars_19 <= 0
 cc_alt_vars_2 <= 0
 cc_alt_vars_6 <= 0
 cc_alt_vars_3 <= 0
 cc_alt_vars_13 <= 0
 cc_alt_vars_21 <= 0
 cc_alt_vars_12 <= 0
 cc_alt_vars_5 <= 0
 cc_alt_vars_23 <= 0
 cc_alt_vars_18 <= 0
 cc_alt_vars_10 <= 0
 cc_alt_vars_17 <= 0
Scenario 126
Bounds
 cc_alt_vars_9 <= 0
 cc_alt_vars_7 <= 0
 cc_alt_vars_15 <= 0
 cc_alt_vars_19 <= 0
 cc_alt_vars_2 <= 0
 cc_alt_vars_0 <= 0
 cc_alt_vars_6 <= 0
 cc_alt_vars_3 <= 0
 cc_alt_vars_13 <= 0
 cc_alt_vars_21 <= 0
 cc_alt_vars_12 <= 0
 cc_alt_vars_5 <= 0
 cc_alt_vars_23 <= 0
 cc_alt_vars_18 <= 0
 cc_alt_vars_10 <= 0
 cc_alt_vars_17 <= 0
Scenario 127
Bounds
 cc_alt_vars_1 <= 0
 cc_alt_vars_9 <= 0
 cc_alt_vars_7 <= 0
 cc_alt_vars_15 <= 0
 cc_alt_vars_19 <= 0
 cc_alt_vars_0 <= 0
 cc_alt_vars_6 <= 0
 cc_alt_vars_3 <= 0
 cc_alt_vars_13 <= 0
 cc_alt_vars_21 <= 0
 cc_alt_vars_12 <= 0
 cc_alt_vars_5 <= 0
 cc_alt_vars_23 <= 0
 cc_alt_vars_18 <= 0
 cc_alt_vars_10 <= 0
 cc_alt_vars_17 <= 0
Scenario 128
Bounds
 cc_alt_vars_1 <= 0
 cc_alt_vars_9 <= 0
 cc_alt_vars_7 <= 0
 cc_alt_vars_15 <= 0
 cc_alt_vars_19 <= 0
 cc_alt_vars_2 <= 0
 cc_alt_vars_6 <= 0
 cc_alt_vars_3 <= 0
 cc_alt_vars_13 <= 0
 cc_alt_vars_21 <= 0
 cc_alt_vars_4 <= 0
 cc_alt_vars_12 <= 0
 cc_alt_vars_23 <= 0
 cc_alt_vars_18 <= 0
 cc_alt_vars_10 <= 0
 cc_alt_vars_17 <= 0
Scenario 129
Bounds
 cc_alt_vars_9 <= 0
 cc_alt_vars_7 <= 0
 cc_alt_vars_15 <= 0
 cc_alt_vars_19 <= 0
 cc_alt_vars_2 <= 0
 cc_alt_vars_0 <= 0
 cc_alt_vars_6 <= 0
 cc_alt_vars_3 <= 0
 cc_alt_vars_13 <= 0
 cc_alt_vars_21 <= 0
 cc_alt_vars_4 <= 0
 cc_alt_vars_12 <= 0
 cc_alt_vars_23 <= 0
 cc_alt_vars_18 <= 0
 cc_alt_vars_10 <= 0
 cc_alt_vars_17 <= 0
Scenario 130
Bounds
 cc_alt_vars_1 <= 0
 cc_alt_vars_9 <= 0
 cc_alt_vars_7 <= 0
 cc_alt_vars_15 <= 0
 cc_alt_vars_19 <= 0
 cc_alt_vars_0 <= 0
 cc_alt_vars_6 <= 0
 cc_alt_vars_3 <= 0
 cc_alt_vars_13 <= 0
 cc_alt_vars_21 <= 0
 cc_alt_vars_4 <= 0
 cc_alt_vars_12 <= 0
 cc_alt_vars_23 <= 0
 cc_alt_vars_18 <= 0
 cc_alt_vars_10 <= 0
 cc_alt_vars_17 <= 0
Scenario 131
Bounds
 cc_alt_vars_1 <= 0
 cc_alt_vars_8 <= 0
 cc_alt_vars_7 <= 0
 cc_alt_vars_15 <= 0
 cc_alt_vars_19 <= 0
 cc_alt_vars_2 <= 0
 cc_alt_vars_13 <= 0
 cc_alt_vars_14 <= 0
 cc_alt_vars_16 <= 0
 cc_alt_vars_21 <= 0
 cc_alt_vars_11 <= 0
 cc_alt_vars_4 <= 0
 cc_alt_vars_5 <= 0
 cc_alt_vars_23 <= 0
 cc_alt_vars_18 <= 0
 cc_alt_vars_10 <= 0
Scenario 132
Bounds
 cc_alt_vars_8 <= 0
 cc_alt_vars_7 <= 0
 cc_alt_vars_15 <= 0
 cc_alt_vars_19 <= 0
 cc_alt_vars_2 <= 0
 cc_alt_vars_0 <= 0
 cc_alt_vars_13 <= 0
 cc_alt_vars_14 <= 0
 cc_alt_vars_16 <= 0
 cc_alt_vars_21 <= 0
 cc_alt_vars_11 <= 0
 cc_alt_vars_4 <= 0
 cc_alt_vars_5 <= 0
 cc_alt_vars_23 <= 0
 cc_alt_vars_18 <= 0
 cc_alt_vars_10 <= 0
Scenario 133
Bounds
 cc_alt_vars_1 <= 0
 cc_alt_vars_8 <= 0
 cc_alt_vars_7 <= 0
 cc_alt_vars_15 <= 0
 cc_alt_vars_19 <= 0
 cc_alt_vars_0 <= 0
 cc_alt_vars_13 <= 0
 cc_alt_vars_14 <= 0
 cc_alt_vars_16 <= 0
 cc_alt_vars_21 <= 0
 cc_alt_vars_11 <= 0
 cc_alt_vars_4 <= 0
 cc_alt_vars_5 <= 0
 cc_alt_vars_23 <= 0
 cc_alt_vars_18 <= 0
 cc_alt_vars_10 <= 0
Scenario 134
Bounds
 cc_alt_vars_1 <= 0
 cc_alt_vars_8 <= 0
 cc_alt_vars_7 <= 0
 cc_alt_vars_15 <= 0
 cc_alt_vars_19 <= 0
 cc_alt_vars_2 <= 0
 cc_alt_vars_3 <= 0
 cc_alt_vars_13 <= 0
 cc_alt_vars_14 <= 0
 cc_alt_vars_16 <= 0
 cc_alt_vars_21 <= 0
 cc_alt_vars_11 <= 0
 cc_alt_vars_5 <= 0
 cc_alt_vars_23 <= 0
 cc_alt_vars_18 <= 0
 cc_alt_vars_10 <= 0
Scenario 135
Bounds
 cc_alt_vars_8 <= 0
 cc_alt_vars_7 <= 0
 cc_alt_vars_15 <= 0
 cc_alt_vars_19 <= 0
 cc_alt_vars_2 <= 0
 cc_alt_vars_0 <= 0
 cc_alt_vars_3 <= 0
 cc_alt_vars_13 <= 0
 cc_alt_vars_14 <= 0
 cc_alt_vars_16 <= 0
 cc_alt_vars_21 <= 0
 cc_alt_vars_11 <= 0
 cc_alt_vars_5 <= 0
 cc_alt_vars_23 <= 0
 cc_alt_vars_18 <= 0
 cc_alt_vars_10 <= 0
Scenario 136
Bounds
 cc_alt_vars_1 <= 0
 cc_alt_vars_8 <= 0
 cc_alt_vars_7 <= 0
 cc_alt_vars_15 <= 0
 cc_alt_vars_19 <= 0
 cc_alt_vars_0 <= 0
 cc_alt_vars_3 <= 0
 cc_alt_vars_13 <= 0
 cc_alt_vars_14 <= 0
 cc_alt_vars_16 <= 0
 cc_alt_vars_21 <= 0
 cc_alt_vars_11 <= 0
 cc_alt_vars_5 <= 0
 cc_alt_vars_23 <= 0
 cc_alt_vars_18 <= 0
 cc_alt_vars_10 <= 0
Scenario 137
Bounds
 cc_alt_vars_1 <= 0
 cc_alt_vars_8 <= 0
 cc_alt_vars_7 <= 0
 cc_alt_vars_15 <= 0
 cc_alt_vars_19 <= 0
 cc_alt_vars_2 <= 0
 cc_alt_vars_3 <= 0
 cc_alt_vars_13 <= 0
 cc_alt_vars_14 <= 0
 cc_alt_vars_16 <= 0
 cc_alt_vars_21 <= 0
 cc_alt_vars_11 <= 0
 cc_alt_vars_4 <= 0
 cc_alt_vars_23 <= 0
 cc_alt_vars_18 <= 0
 cc_alt_vars_10 <= 0
Scenario 138
Bounds
 cc_alt_vars_8 <= 0
 cc_alt_vars_7 <= 0
 cc_alt_vars_15 <= 0
 cc_alt_vars_19 <= 0
 cc_alt_vars_2 <= 0
 cc_alt_vars_0 <= 0
 cc_alt_vars_3 <= 0
 cc_alt_vars_13 <= 0
 cc_alt_vars_14 <= 0
 cc_alt_vars_16 <= 0
 cc_alt_vars_21 <= 0
 cc_alt_vars_11 <= 0
 cc_alt_vars_4 <= 0
 cc_alt_vars_23 <= 0
 cc_alt_vars_18 <= 0
 cc_alt_vars_10 <= 0
Scenario 139
Bounds
 cc_alt_vars_1 <= 0
 cc_alt_vars_8 <= 0
 cc_alt_vars_7 <= 0
 cc_alt_vars_15 <= 0
 cc_alt_vars_19 <= 0
 cc_alt_vars_0 <= 0
 cc_alt_vars_3 <= 0
 cc_alt_vars_13 <= 0
 cc_alt_vars_14 <= 0
 cc_alt_vars_16 <= 0
 cc_alt_vars_21 <= 0
 cc_alt_vars_11 <= 0
 cc_alt_vars_4 <= 0
 cc_alt_vars_23 <= 0
 cc_alt_vars_18 <= 0
 cc_alt_vars_10 <= 0
Scenario 140
Bounds
 cc_alt_vars_1 <= 0
 cc_alt_vars_8 <= 0
 cc_alt_vars_15 <= 0
 cc_alt_vars_19 <= 0
 cc_alt_vars_2 <= 0
 cc_alt_vars_6 <= 0
 cc_alt_vars_13 <= 0
 cc_alt_vars_14 <= 0
 cc_alt_vars_16 <= 0
 cc_alt_vars_21 <= 0
 cc_alt_vars_11 <= 0
 cc_alt_vars_4 <= 0
 cc_alt_vars_5 <= 0
 cc_alt_vars_23 <= 0
 cc_alt_vars_18 <= 0
 cc_alt_vars_10 <= 0
Scenario 141
Bounds
 cc_alt_vars_8 <= 0
 cc_alt_vars_15 <= 0
 cc_alt_vars_19 <= 0
 cc_alt_vars_2 <= 0
 cc_alt_vars_0 <= 0
 cc_alt_vars_6 <= 0
 cc_alt_vars_13 <= 0
 cc_alt_vars_14 <= 0
 cc_alt_vars_16 <= 0
 cc_alt_vars_21 <= 0
 cc_alt_vars_11 <= 0
 cc_alt_vars_4 <= 0
 cc_alt_vars_5 <= 0
 cc_alt_vars_23 <= 0
 cc_alt_vars_18 <= 0
 cc_alt_vars_10 <= 0
Scenario 142
Bounds
 cc_alt_vars_1 <= 0
 cc_alt_vars_8 <= 0
 cc_alt_vars_15 <= 0
 cc_alt_vars_19 <= 0
 cc_alt_vars_0 <= 0
 cc_alt_vars_6 <= 0
 cc_alt_vars_13 <= 0
 cc_alt_vars_14 <= 0
 cc_alt_vars_16 <= 0
 cc_alt_vars_21 <= 0
 cc_alt_vars_11 <= 0
 cc_alt_vars_4 <= 0
 cc_alt_vars_5 <= 0
 cc_alt_vars_23 <= 0
 cc_alt_vars_18 <= 0
 cc_alt_vars_10 <= 0
Scenario 143
Bounds
 cc_alt_vars_1 <= 0
 cc_alt_vars_8 <= 0
 cc_alt_vars_15 <= 0
 cc_alt_vars_19 <= 0
 cc_alt_vars_2 <= 0
 cc_alt_vars_6 <= 0
 cc_alt_vars_3 <= 0
 cc_alt_vars_13 <= 0
 cc_alt_vars_14 <= 0
 cc_alt_vars_16 <= 0
 cc_alt_vars_21 <= 0
 cc_alt_vars_11 <= 0
 cc_alt_vars_5 <= 0
 cc_alt_vars_23 <= 0
 cc_alt_vars_18 <= 0
 cc_alt_vars_10 <= 0
Scenario 144
Bounds
 cc_alt_vars_8 <= 0
 cc_alt_vars_15 <= 0
 cc_alt_vars_19 <= 0
 cc_alt_vars_2 <= 0
 cc_alt_vars_0 <= 0
 cc_alt_vars_6 <= 0
 cc_alt_vars_3 <= 0
 cc_alt_vars_13 <= 0
 cc_alt_vars_14 <= 0
 cc_alt_vars_16 <= 0
 cc_alt_vars_21 <= 0
 cc_alt_vars_11 <= 0
 cc_alt_vars_5 <= 0
 cc_alt_vars_23 <= 0
 cc_alt_vars_18 <= 0
 cc_alt_vars_10 <= 0
Scenario 145
Bounds
 cc_alt_vars_1 <= 0
 cc_alt_vars_8 <= 0
 cc_alt_vars_15 <= 0
 cc_alt_vars_19 <= 0
 cc_alt_vars_0 <= 0
 cc_alt_vars_6 <= 0
 cc_alt_vars_3 <= 0
 cc_alt_vars_13 <= 0
 cc_alt_vars_14 <= 0
 cc_alt_vars_16 <= 0
 cc_alt_vars_21 <= 0
 cc_alt_vars_11 <= 0
 cc_alt_vars_5 <= 0
 cc_alt_vars_23 <= 0
 cc_alt_vars_18 <= 0
 cc_alt_vars_10 <= 0
Scenario 146
Bounds
 cc_alt_vars_1 <= 0
 cc_alt_vars_8 <= 0
 cc_alt_vars_15 <= 0
 cc_alt_vars_19 <= 0
 cc_alt_vars_2 <= 0
 cc_alt_vars_6 <= 0
 cc_alt_vars_3 <= 0
 cc_alt_vars_13 <= 0
 cc_alt_vars_14 <= 0
 cc_alt_vars_16 <= 0
 cc_alt_vars_21 <= 0
 cc_alt_vars_11 <= 0
 cc_alt_vars_4 <= 0
 cc_alt_vars_23 <= 0
 cc_alt_vars_18 <= 0
 cc_alt_vars_10 <= 0
Scenario 147
Bounds
 cc_alt_vars_8 <= 0
 cc_alt_vars_15 <= 0
 cc_alt_vars_19 <= 0
 cc_alt_vars_2 <= 0
 cc_alt_vars_0 <= 0
 cc_alt_vars_6 <= 0
 cc_alt_vars_3 <= 0
 cc_alt_vars_13 <= 0
 cc_alt_vars_14 <= 0
 cc_alt_vars_16 <= 0
 cc_alt_vars_21 <= 0
 cc_alt_vars_11 <= 0
 cc_alt_vars_4 <= 0
 cc_alt_vars_23 <= 0
 cc_alt_vars_18 <= 0
 cc_alt_vars_10 <= 0
Scenario 148
Bounds
 cc_alt_vars_1 <= 0
 cc_alt_vars_8 <= 0
 cc_alt_vars_15 <= 0
 cc_alt_vars_19 <= 0
 cc_alt_vars_0 <= 0
 cc_alt_vars_6 <= 0
 cc_alt_vars_3 <= 0
 cc_alt_vars_13 <= 0
 cc_alt_vars_14 <= 0
 cc_alt_vars_16 <= 0
 cc_alt_vars_21 <= 0
 cc_alt_vars_11 <= 0
 cc_alt_vars_4 <= 0
 cc_alt_vars_23 <= 0
 cc_alt_vars_18 <= 0
 cc_alt_vars_10 <= 0
Scenario 149
Bounds
 cc_alt_vars_1 <= 0
 cc_alt_vars_7 <= 0
 cc_alt_vars_15 <= 0
 cc_alt_vars_19 <= 0
 cc_alt_vars_2 <= 0
 cc_alt_vars_6 <= 0
 cc_alt_vars_13 <= 0
 cc_alt_vars_14 <= 0
 cc_alt_vars_16 <= 0
 cc_alt_vars_21 <= 0
 cc_alt_vars_11 <= 0
 cc_alt_vars_4 <= 0
 cc_alt_vars_5 <= 0
 cc_alt_vars_23 <= 0
 cc_alt_vars_18 <= 0
 cc_alt_vars_10 <= 0
Scenario 150
Bounds
 cc_alt_vars_7 <= 0
 cc_alt_vars_15 <= 0
 cc_alt_vars_19 <= 0
 cc_alt_vars_2 <= 0
 cc_alt_vars_0 <= 0
 cc_alt_vars_6 <= 0
 cc_alt_vars_13 <= 0
 cc_alt_vars_14 <= 0
 cc_alt_vars_16 <= 0
 cc_alt_vars_21 <= 0
 cc_alt_vars_11 <= 0
 cc_alt_vars_4 <= 0
 cc_alt_vars_5 <= 0
 cc_alt_vars_23 <= 0
 cc_alt_vars_18 <= 0
 cc_alt_vars_10 <= 0
Scenario 151
Bounds
 cc_alt_vars_1 <= 0
 cc_alt_vars_7 <= 0
 cc_alt_vars_15 <= 0
 cc_alt_vars_19 <= 0
 cc_alt_vars_0 <= 0
 cc_alt_vars_6 <= 0
 cc_alt_vars_13 <= 0
 cc_alt_vars_14 <= 0
 cc_alt_vars_16 <= 0
 cc_alt_vars_21 <= 0
 cc_alt_vars_11 <= 0
 cc_alt_vars_4 <= 0
 cc_alt_vars_5 <= 0
 cc_alt_vars_23 <= 0
 cc_alt_vars_18 <= 0
 cc_alt_vars_10 <= 0
Scenario 152
Bounds
 cc_alt_vars_1 <= 0
 cc_alt_vars_7 <= 0
 cc_alt_vars_15 <= 0
 cc_alt_vars_19 <= 0
 cc_alt_vars_2 <= 0
 cc_alt_vars_6 <= 0
 cc_alt_vars_3 <= 0
 cc_alt_vars_13 <= 0
 cc_alt_vars_14 <= 0
 cc_alt_vars_16 <= 0
 cc_alt_vars_21 <= 0
 cc_alt_vars_11 <= 0
 cc_alt_vars_5 <= 0
 cc_alt_vars_23 <= 0
 cc_alt_vars_18 <= 0
 cc_alt_vars_10 <= 0
Scenario 153
Bounds
 cc_alt_vars_7 <= 0
 cc_alt_vars_15 <= 0
 cc_alt_vars_19 <= 0
 cc_alt_vars_2 <= 0
 cc_alt_vars_0 <= 0
 cc_alt_vars_6 <= 0
 cc_alt_vars_3 <= 0
 cc_alt_vars_13 <= 0
 cc_alt_vars_14 <= 0
 cc_alt_vars_16 <= 0
 cc_alt_vars_21 <= 0
 cc_alt_vars_11 <= 0
 cc_alt_vars_5 <= 0
 cc_alt_vars_23 <= 0
 cc_alt_vars_18 <= 0
 cc_alt_vars_10 <= 0
Scenario 154
Bounds
 cc_alt_vars_1 <= 0
 cc_alt_vars_7 <= 0
 cc_alt_vars_15 <= 0
 cc_alt_vars_19 <= 0
 cc_alt_vars_0 <= 0
 cc_alt_vars_6 <= 0
 cc_alt_vars_3 <= 0
 cc_alt_vars_13 <= 0
 cc_alt_vars_14 <= 0
 cc_alt_vars_16 <= 0
 cc_alt_vars_21 <= 0
 cc_alt_vars_11 <= 0
 cc_alt_vars_5 <= 0
 cc_alt_vars_23 <= 0
 cc_alt_vars_18 <= 0
 cc_alt_vars_10 <= 0
Scenario 155
Bounds
 cc_alt_vars_1 <= 0
 cc_alt_vars_7 <= 0
 cc_alt_vars_15 <= 0
 cc_alt_vars_19 <= 0
 cc_alt_vars_2 <= 0
 cc_alt_vars_6 <= 0
 cc_alt_vars_3 <= 0
 cc_alt_vars_13 <= 0
 cc_alt_vars_14 <= 0
 cc_alt_vars_16 <= 0
 cc_alt_vars_21 <= 0
 cc_alt_vars_11 <= 0
 cc_alt_vars_4 <= 0
 cc_alt_vars_23 <= 0
 cc_alt_vars_18 <= 0
 cc_alt_vars_10 <= 0
Scenario 156
Bounds
 cc_alt_vars_7 <= 0
 cc_alt_vars_15 <= 0
 cc_alt_vars_19 <= 0
 cc_alt_vars_2 <= 0
 cc_alt_vars_0 <= 0
 cc_alt_vars_6 <= 0
 cc_alt_vars_3 <= 0
 cc_alt_vars_13 <= 0
 cc_alt_vars_14 <= 0
 cc_alt_vars_16 <= 0
 cc_alt_vars_21 <= 0
 cc_alt_vars_11 <= 0
 cc_alt_vars_4 <= 0
 cc_alt_vars_23 <= 0
 cc_alt_vars_18 <= 0
 cc_alt_vars_10 <= 0
Scenario 157
Bounds
 cc_alt_vars_1 <= 0
 cc_alt_vars_7 <= 0
 cc_alt_vars_15 <= 0
 cc_alt_vars_19 <= 0
 cc_alt_vars_0 <= 0
 cc_alt_vars_6 <= 0
 cc_alt_vars_3 <= 0
 cc_alt_vars_13 <= 0
 cc_alt_vars_14 <= 0
 cc_alt_vars_16 <= 0
 cc_alt_vars_21 <= 0
 cc_alt_vars_11 <= 0
 cc_alt_vars_4 <= 0
 cc_alt_vars_23 <= 0
 cc_alt_vars_18 <= 0
 cc_alt_vars_10 <= 0
Scenario 158
Bounds
 cc_alt_vars_1 <= 0
 cc_alt_vars_9 <= 0
 cc_alt_vars_8 <= 0
 cc_alt_vars_7 <= 0
 cc_alt_vars_15 <= 0
 cc_alt_vars_19 <= 0
 cc_alt_vars_2 <= 0
 cc_alt_vars_13 <= 0
 cc_alt_vars_14 <= 0
 cc_alt_vars_16 <= 0
 cc_alt_vars_21 <= 0
 cc_alt_vars_11 <= 0
 cc_alt_vars_4 <= 0
 cc_alt_vars_5 <= 0
 cc_alt_vars_23 <= 0
 cc_alt_vars_18 <= 0
Scenario 159
Bounds
 cc_alt_vars_9 <= 0
 cc_alt_vars_8 <= 0
 cc_alt_vars_7 <= 0
 cc_alt_vars_15 <= 0
 cc_alt_vars_19 <= 0
 cc_alt_vars_2 <= 0
 cc_alt_vars_0 <= 0
 cc_alt_vars_13 <= 0
 cc_alt_vars_14 <= 0
 cc_alt_vars_16 <= 0
 cc_alt_vars_21 <= 0
 cc_alt_vars_11 <= 0
 cc_alt_vars_4 <= 0
 cc_alt_vars_5 <= 0
 cc_alt_vars_23 <= 0
 cc_alt_vars_18 <= 0
Scenario 160
Bounds
 cc_alt_vars_1 <= 0
 cc_alt_vars_9 <= 0
 cc_alt_vars_8 <= 0
 cc_alt_vars_7 <= 0
 cc_alt_vars_15 <= 0
 cc_alt_vars_19 <= 0
 cc_alt_vars_0 <= 0
 cc_alt_vars_13 <= 0
 cc_alt_vars_14 <= 0
 cc_alt_vars_16 <= 0
 cc_alt_vars_21 <= 0
 cc_alt_vars_11 <= 0
 cc_alt_vars_4 <= 0
 cc_alt_vars_5 <= 0
 cc_alt_vars_23 <= 0
 cc_alt_vars_18 <= 0
Scenario 161
Bounds
 cc_alt_vars_1 <= 0
 cc_alt_vars_9 <= 0
 cc_alt_vars_8 <= 0
 cc_alt_vars_7 <= 0
 cc_alt_vars_15 <= 0
 cc_alt_vars_19 <= 0
 cc_alt_vars_2 <= 0
 cc_alt_vars_3 <= 0
 cc_alt_vars_13 <= 0
 cc_alt_vars_14 <= 0
 cc_alt_vars_16 <= 0
 cc_alt_vars_21 <= 0
 cc_alt_vars_11 <= 0
 cc_alt_vars_5 <= 0
 cc_alt_vars_23 <= 0
 cc_alt_vars_18 <= 0
Scenario 162
Bounds
 cc_alt_vars_9 <= 0
 cc_alt_vars_8 <= 0
 cc_alt_vars_7 <= 0
 cc_alt_vars_15 <= 0
 cc_alt_vars_19 <= 0
 cc_alt_vars_2 <= 0
 cc_alt_vars_0 <= 0
 cc_alt_vars_3 <= 0
 cc_alt_vars_13 <= 0
 cc_alt_vars_14 <= 0
 cc_alt_vars_16 <= 0
 cc_alt_vars_21 <= 0
 cc_alt_vars_11 <= 0
 cc_alt_vars_5 <= 0
 cc_alt_vars_23 <= 0
 cc_alt_vars_18 <= 0
Scenario 163
Bounds
 cc_alt_vars_1 <= 0
 cc_alt_vars_9 <= 0
 cc_alt_vars_8 <= 0
 cc_alt_vars_7 <= 0
 cc_alt_vars_15 <= 0
 cc_alt_vars_19 <= 0
 cc_alt_vars_0 <= 0
 cc_alt_vars_3 <= 0
 cc_alt_vars_13 <= 0
 cc_alt_vars_14 <= 0
 cc_alt_vars_16 <= 0
 cc_alt_vars_21 <= 0
 cc_alt_vars_11 <= 0
 cc_alt_vars_5 <= 0
 cc_alt_vars_23 <= 0
 cc_alt_vars_18 <= 0
Scenario 164
Bounds
 cc_alt_vars_1 <= 0
 cc_alt_vars_9 <= 0
 cc_alt_vars_8 <= 0
 cc_alt_vars_7 <= 0
 cc_alt_vars_15 <= 0
 cc_alt_vars_19 <= 0
 cc_alt_vars_2 <= 0
 cc_alt_vars_3 <= 0
 cc_alt_vars_13 <= 0
 cc_alt_vars_14 <= 0
 cc_alt_vars_16 <= 0
 cc_alt_vars_21 <= 0
 cc_alt_vars_11 <= 0
 cc_alt_vars_4 <= 0
 cc_alt_vars_23 <= 0
 cc_alt_vars_18 <= 0
Scenario 165
Bounds
 cc_alt_vars_9 <= 0
 cc_alt_vars_8 <= 0
 cc_alt_vars_7 <= 0
 cc_alt_vars_15 <= 0
 cc_alt_vars_19 <= 0
 cc_alt_vars_2 <= 0
 cc_alt_vars_0 <= 0
 cc_alt_vars_3 <= 0
 cc_alt_vars_13 <= 0
 cc_alt_vars_14 <= 0
 cc_alt_vars_16 <= 0
 cc_alt_vars_21 <= 0
 cc_alt_vars_11 <= 0
 cc_alt_vars_4 <= 0
 cc_alt_vars_23 <= 0
 cc_alt_vars_18 <= 0
Scenario 166
Bounds
 cc_alt_vars_1 <= 0
 cc_alt_vars_9 <= 0
 cc_alt_vars_8 <= 0
 cc_alt_vars_7 <= 0
 cc_alt_vars_15 <= 0
 cc_alt_vars_19 <= 0
 cc_alt_vars_0 <= 0
 cc_alt_vars_3 <= 0
 cc_alt_vars_13 <= 0
 cc_alt_vars_14 <= 0
 cc_alt_vars_16 <= 0
 cc_alt_vars_21 <= 0
 cc_alt_vars_11 <= 0
 cc_alt_vars_4 <= 0
 cc_alt_vars_23 <= 0
 cc_alt_vars_18 <= 0
Scenario 167
Bounds
 cc_alt_vars_1 <= 0
 cc_alt_vars_9 <= 0
 cc_alt_vars_8 <= 0
 cc_alt_vars_15 <= 0
 cc_alt_vars_19 <= 0
 cc_alt_vars_2 <= 0
 cc_alt_vars_6 <= 0
 cc_alt_vars_13 <= 0
 cc_alt_vars_14 <= 0
 cc_alt_vars_16 <= 0
 cc_alt_vars_21 <= 0
 cc_alt_vars_11 <= 0
 cc_alt_vars_4 <= 0
 cc_alt_vars_5 <= 0
 cc_alt_vars_23 <= 0
 cc_alt_vars_18 <= 0
Scenario 168
Bounds
 cc_alt_vars_9 <= 0
 cc_alt_vars_8 <= 0
 cc_alt_vars_15 <= 0
 cc_alt_vars_19 <= 0
 cc_alt_vars_2 <= 0
 cc_alt_vars_0 <= 0
 cc_alt_vars_6 <= 0
 cc_alt_vars_13 <= 0
 cc_alt_vars_14 <= 0
 cc_alt_vars_16 <= 0
 cc_alt_vars_21 <= 0
 cc_alt_vars_11 <= 0
 cc_alt_vars_4 <= 0
 cc_alt_vars_5 <= 0
 cc_alt_vars_23 <= 0
 cc_alt_vars_18 <= 0
Scenario 169
Bounds
 cc_alt_vars_1 <= 0
 cc_alt_vars_9 <= 0
 cc_alt_vars_8 <= 0
 cc_alt_vars_15 <= 0
 cc_alt_vars_19 <= 0
 cc_alt_vars_0 <= 0
 cc_alt_vars_6 <= 0
 cc_alt_vars_13 <= 0
 cc_alt_vars_14 <= 0
 cc_alt_vars_16 <= 0
 cc_alt_vars_21 <= 0
 cc_alt_vars_11 <= 0
 cc_alt_vars_4 <= 0
 cc_alt_vars_5 <= 0
 cc_alt_vars_23 <= 0
 cc_alt_vars_18 <= 0
Scenario 170
Bounds
 cc_alt_vars_1 <= 0
 cc_alt_vars_9 <= 0
 cc_alt_vars_8 <= 0
 cc_alt_vars_15 <= 0
 cc_alt_vars_19 <= 0
 cc_alt_vars_2 <= 0
 cc_alt_vars_6 <= 0
 cc_alt_vars_3 <= 0
 cc_alt_vars_13 <= 0
 cc_alt_vars_14 <= 0
 cc_alt_vars_16 <= 0
 cc_alt_vars_21 <= 0
 cc_alt_vars_11 <= 0
 cc_alt_vars_5 <= 0
 cc_alt_vars_23 <= 0
 cc_alt_vars_18 <= 0
Scenario 171
Bounds
 cc_alt_vars_9 <= 0
 cc_alt_vars_8 <= 0
 cc_alt_vars_15 <= 0
 cc_alt_vars_19 <= 0
 cc_alt_vars_2 <= 0
 cc_alt_vars_0 <= 0
 cc_alt_vars_6 <= 0
 cc_alt_vars_3 <= 0
 cc_alt_vars_13 <= 0
 cc_alt_vars_14 <= 0
 cc_alt_vars_16 <= 0
 cc_alt_vars_21 <= 0
 cc_alt_vars_11 <= 0
 cc_alt_vars_5 <= 0
 cc_alt_vars_23 <= 0
 cc_alt_vars_18 <= 0
Scenario 172
Bounds
 cc_alt_vars_1 <= 0
 cc_alt_vars_9 <= 0
 cc_alt_vars_8 <= 0
 cc_alt_vars_15 <= 0
 cc_alt_vars_19 <= 0
 cc_alt_vars_0 <= 0
 cc_alt_vars_6 <= 0
 cc_alt_vars_3 <= 0
 cc_alt_vars_13 <= 0
 cc_alt_vars_14 <= 0
 cc_alt_vars_16 <= 0
 cc_alt_vars_21 <= 0
 cc_alt_vars_11 <= 0
 cc_alt_vars_5 <= 0
 cc_alt_vars_23 <= 0
 cc_alt_vars_18 <= 0
Scenario 173
Bounds
 cc_alt_vars_1 <= 0
 cc_alt_vars_9 <= 0
 cc_alt_vars_8 <= 0
 cc_alt_vars_15 <= 0
 cc_alt_vars_19 <= 0
 cc_alt_vars_2 <= 0
 cc_alt_vars_6 <= 0
 cc_alt_vars_3 <= 0
 cc_alt_vars_13 <= 0
 cc_alt_vars_14 <= 0
 cc_alt_vars_16 <= 0
 cc_alt_vars_21 <= 0
 cc_alt_vars_11 <= 0
 cc_alt_vars_4 <= 0
 cc_alt_vars_23 <= 0
 cc_alt_vars_18 <= 0
Scenario 174
Bounds
 cc_alt_vars_9 <= 0
 cc_alt_vars_8 <= 0
 cc_alt_vars_15 <= 0
 cc_alt_vars_19 <= 0
 cc_alt_vars_2 <= 0
 cc_alt_vars_0 <= 0
 cc_alt_vars_6 <= 0
 cc_alt_vars_3 <= 0
 cc_alt_vars_13 <= 0
 cc_alt_vars_14 <= 0
 cc_alt_vars_16 <= 0
 cc_alt_vars_21 <= 0
 cc_alt_vars_11 <= 0
 cc_alt_vars_4 <= 0
 cc_alt_vars_23 <= 0
 cc_alt_vars_18 <= 0
Scenario 175
Bounds
 cc_alt_vars_1 <= 0
 cc_alt_vars_9 <= 0
 cc_alt_vars_8 <= 0
 cc_alt_vars_15 <= 0
 cc_alt_vars_19 <= 0
 cc_alt_vars_0 <= 0
 cc_alt_vars_6 <= 0
 cc_alt_vars_3 <= 0
 cc_alt_vars_13 <= 0
 cc_alt_vars_14 <= 0
 cc_alt_vars_16 <= 0
 cc_alt_vars_21 <= 0
 cc_alt_vars_11 <= 0
 cc_alt_vars_4 <= 0
 cc_alt_vars_23 <= 0
 cc_alt_vars_18 <= 0
Scenario 176
Bounds
 cc_alt_vars_1 <= 0
 cc_alt_vars_9 <= 0
 cc_alt_vars_7 <= 0
 cc_alt_vars_15 <= 0
 cc_alt_vars_19 <= 0
 cc_alt_vars_2 <= 0
 cc_alt_vars_6 <= 0
 cc_alt_vars_13 <= 0
 cc_alt_vars_14 <= 0
 cc_alt_vars_16 <= 0
 cc_alt_vars_21 <= 0
 cc_alt_vars_11 <= 0
 cc_alt_vars_4 <= 0
 cc_alt_vars_5 <= 0
 cc_alt_vars_23 <= 0
 cc_alt_vars_18 <= 0
Scenario 177
Bounds
 cc_alt_vars_9 <= 0
 cc_alt_vars_7 <= 0
 cc_alt_vars_15 <= 0
 cc_alt_vars_19 <= 0
 cc_alt_vars_2 <= 0
 cc_alt_vars_0 <= 0
 cc_alt_vars_6 <= 0
 cc_alt_vars_13 <= 0
 cc_alt_vars_14 <= 0
 cc_alt_vars_16 <= 0
 cc_alt_vars_21 <= 0
 cc_alt_vars_11 <= 0
 cc_alt_vars_4 <= 0
 cc_alt_vars_5 <= 0
 cc_alt_vars_23 <= 0
 cc_alt_vars_18 <= 0
Scenario 178
Bounds
 cc_alt_vars_1 <= 0
 cc_alt_vars_9 <= 0
 cc_alt_vars_7 <= 0
 cc_alt_vars_15 <= 0
 cc_alt_vars_19 <= 0
 cc_alt_vars_0 <= 0
 cc_alt_vars_6 <= 0
 cc_alt_vars_13 <= 0
 cc_alt_vars_14 <= 0
 cc_alt_vars_16 <= 0
 cc_alt_vars_21 <= 0
 cc_alt_vars_11 <= 0
 cc_alt_vars_4 <= 0
 cc_alt_vars_5 <= 0
 cc_alt_vars_23 <= 0
 cc_alt_vars_18 <= 0
Scenario 179
Bounds
 cc_alt_vars_1 <= 0
 cc_alt_vars_9 <= 0
 cc_alt_vars_7 <= 0
 cc_alt_vars_15 <= 0
 cc_alt_vars_19 <= 0
 cc_alt_vars_2 <= 0
 cc_alt_vars_6 <= 0
 cc_alt_vars_3 <= 0
 cc_alt_vars_13 <= 0
 cc_alt_vars_14 <= 0
 cc_alt_vars_16 <= 0
 cc_alt_vars_21 <= 0
 cc_alt_vars_11 <= 0
 cc_alt_vars_5 <= 0
 cc_alt_vars_23 <= 0
 cc_alt_vars_18 <= 0
Scenario 180
Bounds
 cc_alt_vars_9 <= 0
 cc_alt_vars_7 <= 0
 cc_alt_vars_15 <= 0
 cc_alt_vars_19 <= 0
 cc_alt_vars_2 <= 0
 cc_alt_vars_0 <= 0
 cc_alt_vars_6 <= 0
 cc_alt_vars_3 <= 0
 cc_alt_vars_13 <= 0
 cc_alt_vars_14 <= 0
 cc_alt_vars_16 <= 0
 cc_alt_vars_21 <= 0
 cc_alt_vars_11 <= 0
 cc_alt_vars_5 <= 0
 cc_alt_vars_23 <= 0
 cc_alt_vars_18 <= 0
Scenario 181
Bounds
 cc_alt_vars_1 <= 0
 cc_alt_vars_9 <= 0
 cc_alt_vars_7 <= 0
 cc_alt_vars_15 <= 0
 cc_alt_vars_19 <= 0
 cc_alt_vars_0 <= 0
 cc_alt_vars_6 <= 0
 cc_alt_vars_3 <= 0
 cc_alt_vars_13 <= 0
 cc_alt_vars_14 <= 0
 cc_alt_vars_16 <= 0
 cc_alt_vars_21 <= 0
 cc_alt_vars_11 <= 0
 cc_alt_vars_5 <= 0
 cc_alt_vars_23 <= 0
 cc_alt_vars_18 <= 0
Scenario 182
Bounds
 cc_alt_vars_1 <= 0
 cc_alt_vars_9 <= 0
 cc_alt_vars_7 <= 0
 cc_alt_vars_15 <= 0
 cc_alt_vars_19 <= 0
 cc_alt_vars_2 <= 0
 cc_alt_vars_6 <= 0
 cc_alt_vars_3 <= 0
 cc_alt_vars_13 <= 0
 cc_alt_vars_14 <= 0
 cc_alt_vars_16 <= 0
 cc_alt_vars_21 <= 0
 cc_alt_vars_11 <= 0
 cc_alt_vars_4 <= 0
 cc_alt_vars_23 <= 0
 cc_alt_vars_18 <= 0
Scenario 183
Bounds
 cc_alt_vars_9 <= 0
 cc_alt_vars_7 <= 0
 cc_alt_vars_15 <= 0
 cc_alt_vars_19 <= 0
 cc_alt_vars_2 <= 0
 cc_alt_vars_0 <= 0
 cc_alt_vars_6 <= 0
 cc_alt_vars_3 <= 0
 cc_alt_vars_13 <= 0
 cc_alt_vars_14 <= 0
 cc_alt_vars_16 <= 0
 cc_alt_vars_21 <= 0
 cc_alt_vars_11 <= 0
 cc_alt_vars_4 <= 0
 cc_alt_vars_23 <= 0
 cc_alt_vars_18 <= 0
Scenario 184
Bounds
 cc_alt_vars_1 <= 0
 cc_alt_vars_9 <= 0
 cc_alt_vars_7 <= 0
 cc_alt_vars_15 <= 0
 cc_alt_vars_19 <= 0
 cc_alt_vars_0 <= 0
 cc_alt_vars_6 <= 0
 cc_alt_vars_3 <= 0
 cc_alt_vars_13 <= 0
 cc_alt_vars_14 <= 0
 cc_alt_vars_16 <= 0
 cc_alt_vars_21 <= 0
 cc_alt_vars_11 <= 0
 cc_alt_vars_4 <= 0
 cc_alt_vars_23 <= 0
 cc_alt_vars_18 <= 0
Scenario 185
Bounds
 cc_alt_vars_1 <= 0
 cc_alt_vars_9 <= 0
 cc_alt_vars_8 <= 0
 cc_alt_vars_7 <= 0
 cc_alt_vars_15 <= 0
 cc_alt_vars_19 <= 0
 cc_alt_vars_2 <= 0
 cc_alt_vars_13 <= 0
 cc_alt_vars_14 <= 0
 cc_alt_vars_16 <= 0
 cc_alt_vars_21 <= 0
 cc_alt_vars_4 <= 0
 cc_alt_vars_5 <= 0
 cc_alt_vars_23 <= 0
 cc_alt_vars_18 <= 0
 cc_alt_vars_10 <= 0
Scenario 186
Bounds
 cc_alt_vars_9 <= 0
 cc_alt_vars_8 <= 0
 cc_alt_vars_7 <= 0
 cc_alt_vars_15 <= 0
 cc_alt_vars_19 <= 0
 cc_alt_vars_2 <= 0
 cc_alt_vars_0 <= 0
 cc_alt_vars_13 <= 0
 cc_alt_vars_14 <= 0
 cc_alt_vars_16 <= 0
 cc_alt_vars_21 <= 0
 cc_alt_vars_4 <= 0
 cc_alt_vars_5 <= 0
 cc_alt_vars_23 <= 0
 cc_alt_vars_18 <= 0
 cc_alt_vars_10 <= 0
Scenario 187
Bounds
 cc_alt_vars_1 <= 0
 cc_alt_vars_9 <= 0
 cc_alt_vars_8 <= 0
 cc_alt_vars_7 <= 0
 cc_alt_vars_15 <= 0
 cc_alt_vars_19 <= 0
 cc_alt_vars_0 <= 0
 cc_alt_vars_13 <= 0
 cc_alt_vars_14 <= 0
 cc_alt_vars_16 <= 0
 cc_alt_vars_21 <= 0
 cc_alt_vars_4 <= 0
 cc_alt_vars_5 <= 0
 cc_alt_vars_23 <= 0
 cc_alt_vars_18 <= 0
 cc_alt_vars_10 <= 0
Scenario 188
Bounds
 cc_alt_vars_1 <= 0
 cc_alt_vars_9 <= 0
 cc_alt_vars_8 <= 0
 cc_alt_vars_7 <= 0
 cc_alt_vars_15 <= 0
 cc_alt_vars_19 <= 0
 cc_alt_vars_2 <= 0
 cc_alt_vars_3 <= 0
 cc_alt_vars_13 <= 0
 cc_alt_vars_14 <= 0
 cc_alt_vars_16 <= 0
 cc_alt_vars_21 <= 0
 cc_alt_vars_5 <= 0
 cc_alt_vars_23 <= 0
 cc_alt_vars_18 <= 0
 cc_alt_vars_10 <= 0
Scenario 189
Bounds
 cc_alt_vars_9 <= 0
 cc_alt_vars_8 <= 0
 cc_alt_vars_7 <= 0
 cc_alt_vars_15 <= 0
 cc_alt_vars_19 <= 0
 cc_alt_vars_2 <= 0
 cc_alt_vars_0 <= 0
 cc_alt_vars_3 <= 0
 cc_alt_vars_13 <= 0
 cc_alt_vars_14 <= 0
 cc_alt_vars_16 <= 0
 cc_alt_vars_21 <= 0
 cc_alt_vars_5 <= 0
 cc_alt_vars_23 <= 0
 cc_alt_vars_18 <= 0
 cc_alt_vars_10 <= 0
Scenario 190
Bounds
 cc_alt_vars_1 <= 0
 cc_alt_vars_9 <= 0
 cc_alt_vars_8 <= 0
 cc_alt_vars_7 <= 0
 cc_alt_vars_15 <= 0
 cc_alt_vars_19 <= 0
 cc_alt_vars_0 <= 0
 cc_alt_vars_3 <= 0
 cc_alt_vars_13 <= 0
 cc_alt_vars_14 <= 0
 cc_alt_vars_16 <= 0
 cc_alt_vars_21 <= 0
 cc_alt_vars_5 <= 0
 cc_alt_vars_23 <= 0
 cc_alt_vars_18 <= 0
 cc_alt_vars_10 <= 0
Scenario 191
Bounds
 cc_alt_vars_1 <= 0
 cc_alt_vars_9 <= 0
 cc_alt_vars_8 <= 0
 cc_alt_vars_7 <= 0
 cc_alt_vars_15 <= 0
 cc_alt_vars_19 <= 0
 cc_alt_vars_2 <= 0
 cc_alt_vars_3 <= 0
 cc_alt_vars_13 <= 0
 cc_alt_vars_14 <= 0
 cc_alt_vars_16 <= 0
 cc_alt_vars_21 <= 0
 cc_alt_vars_4 <= 0
 cc_alt_vars_23 <= 0
 cc_alt_vars_18 <= 0
 cc_alt_vars_10 <= 0
Scenario 192
Bounds
 cc_alt_vars_9 <= 0
 cc_alt_vars_8 <= 0
 cc_alt_vars_7 <= 0
 cc_alt_vars_15 <= 0
 cc_alt_vars_19 <= 0
 cc_alt_vars_2 <= 0
 cc_alt_vars_0 <= 0
 cc_alt_vars_3 <= 0
 cc_alt_vars_13 <= 0
 cc_alt_vars_14 <= 0
 cc_alt_vars_16 <= 0
 cc_alt_vars_21 <= 0
 cc_alt_vars_4 <= 0
 cc_alt_vars_23 <= 0
 cc_alt_vars_18 <= 0
 cc_alt_vars_10 <= 0
Scenario 193
Bounds
 cc_alt_vars_1 <= 0
 cc_alt_vars_9 <= 0
 cc_alt_vars_8 <= 0
 cc_alt_vars_7 <= 0
 cc_alt_vars_15 <= 0
 cc_alt_vars_19 <= 0
 cc_alt_vars_0 <= 0
 cc_alt_vars_3 <= 0
 cc_alt_vars_13 <= 0
 cc_alt_vars_14 <= 0
 cc_alt_vars_16 <= 0
 cc_alt_vars_21 <= 0
 cc_alt_vars_4 <= 0
 cc_alt_vars_23 <= 0
 cc_alt_vars_18 <= 0
 cc_alt_vars_10 <= 0
Scenario 194
Bounds
 cc_alt_vars_1 <= 0
 cc_alt_vars_9 <= 0
 cc_alt_vars_8 <= 0
 cc_alt_vars_15 <= 0
 cc_alt_vars_19 <= 0
 cc_alt_vars_2 <= 0
 cc_alt_vars_6 <= 0
 cc_alt_vars_13 <= 0
 cc_alt_vars_14 <= 0
 cc_alt_vars_16 <= 0
 cc_alt_vars_21 <= 0
 cc_alt_vars_4 <= 0
 cc_alt_vars_5 <= 0
 cc_alt_vars_23 <= 0
 cc_alt_vars_18 <= 0
 cc_alt_vars_10 <= 0
Scenario 195
Bounds
 cc_alt_vars_9 <= 0
 cc_alt_vars_8 <= 0
 cc_alt_vars_15 <= 0
 cc_alt_vars_19 <= 0
 cc_alt_vars_2 <= 0
 cc_alt_vars_0 <= 0
 cc_alt_vars_6 <= 0
 cc_alt_vars_13 <= 0
 cc_alt_vars_14 <= 0
 cc_alt_vars_16 <= 0
 cc_alt_vars_21 <= 0
 cc_alt_vars_4 <= 0
 cc_alt_vars_5 <= 0
 cc_alt_vars_23 <= 0
 cc_alt_vars_18 <= 0
 cc_alt_vars_10 <= 0
Scenario 196
Bounds
 cc_alt_vars_1 <= 0
 cc_alt_vars_9 <= 0
 cc_alt_vars_8 <= 0
 cc_alt_vars_15 <= 0
 cc_alt_vars_19 <= 0
 cc_alt_vars_0 <= 0
 cc_alt_vars_6 <= 0
 cc_alt_vars_13 <= 0
 cc_alt_vars_14 <= 0
 cc_alt_vars_16 <= 0
 cc_alt_vars_21 <= 0
 cc_alt_vars_4 <= 0
 cc_alt_vars_5 <= 0
 cc_alt_vars_23 <= 0
 cc_alt_vars_18 <= 0
 cc_alt_vars_10 <= 0
Scenario 197
Bounds
 cc_alt_vars_1 <= 0
 cc_alt_vars_9 <= 0
 cc_alt_vars_8 <= 0
 cc_alt_vars_15 <= 0
 cc_alt_vars_19 <= 0
 cc_alt_vars_2 <= 0
 cc_alt_vars_6 <= 0
 cc_alt_vars_3 <= 0
 cc_alt_vars_13 <= 0
 cc_alt_vars_14 <= 0
 cc_alt_vars_16 <= 0
 cc_alt_vars_21 <= 0
 cc_alt_vars_5 <= 0
 cc_alt_vars_23 <= 0
 cc_alt_vars_18 <= 0
 cc_alt_vars_10 <= 0
Scenario 198
Bounds
 cc_alt_vars_9 <= 0
 cc_alt_vars_8 <= 0
 cc_alt_vars_15 <= 0
 cc_alt_vars_19 <= 0
 cc_alt_vars_2 <= 0
 cc_alt_vars_0 <= 0
 cc_alt_vars_6 <= 0
 cc_alt_vars_3 <= 0
 cc_alt_vars_13 <= 0
 cc_alt_vars_14 <= 0
 cc_alt_vars_16 <= 0
 cc_alt_vars_21 <= 0
 cc_alt_vars_5 <= 0
 cc_alt_vars_23 <= 0
 cc_alt_vars_18 <= 0
 cc_alt_vars_10 <= 0
Scenario 199
Bounds
 cc_alt_vars_1 <= 0
 cc_alt_vars_9 <= 0
 cc_alt_vars_8 <= 0
 cc_alt_vars_15 <= 0
 cc_alt_vars_19 <= 0
 cc_alt_vars_0 <= 0
 cc_alt_vars_6 <= 0
 cc_alt_vars_3 <= 0
 cc_alt_vars_13 <= 0
 cc_alt_vars_14 <= 0
 cc_alt_vars_16 <= 0
 cc_alt_vars_21 <= 0
 cc_alt_vars_5 <= 0
 cc_alt_vars_23 <= 0
 cc_alt_vars_18 <= 0
 cc_alt_vars_10 <= 0
Scenario 200
Bounds
 cc_alt_vars_1 <= 0
 cc_alt_vars_9 <= 0
 cc_alt_vars_8 <= 0
 cc_alt_vars_15 <= 0
 cc_alt_vars_19 <= 0
 cc_alt_vars_2 <= 0
 cc_alt_vars_6 <= 0
 cc_alt_vars_3 <= 0
 cc_alt_vars_13 <= 0
 cc_alt_vars_14 <= 0
 cc_alt_vars_16 <= 0
 cc_alt_vars_21 <= 0
 cc_alt_vars_4 <= 0
 cc_alt_vars_23 <= 0
 cc_alt_vars_18 <= 0
 cc_alt_vars_10 <= 0
Scenario 201
Bounds
 cc_alt_vars_9 <= 0
 cc_alt_vars_8 <= 0
 cc_alt_vars_15 <= 0
 cc_alt_vars_19 <= 0
 cc_alt_vars_2 <= 0
 cc_alt_vars_0 <= 0
 cc_alt_vars_6 <= 0
 cc_alt_vars_3 <= 0
 cc_alt_vars_13 <= 0
 cc_alt_vars_14 <= 0
 cc_alt_vars_16 <= 0
 cc_alt_vars_21 <= 0
 cc_alt_vars_4 <= 0
 cc_alt_vars_23 <= 0
 cc_alt_vars_18 <= 0
 cc_alt_vars_10 <= 0
Scenario 202
Bounds
 cc_alt_vars_1 <= 0
 cc_alt_vars_9 <= 0
 cc_alt_vars_8 <= 0
 cc_alt_vars_15 <= 0
 cc_alt_vars_19 <= 0
 cc_alt_vars_0 <= 0
 cc_alt_vars_6 <= 0
 cc_alt_vars_3 <= 0
 cc_alt_vars_13 <= 0
 cc_alt_vars_14 <= 0
 cc_alt_vars_16 <= 0
 cc_alt_vars_21 <= 0
 cc_alt_vars_4 <= 0
 cc_alt_vars_23 <= 0
 cc_alt_vars_18 <= 0
 cc_alt_vars_10 <= 0
Scenario 203
Bounds
 cc_alt_vars_1 <= 0
 cc_alt_vars_9 <= 0
 cc_alt_vars_7 <= 0
 cc_alt_vars_15 <= 0
 cc_alt_vars_19 <= 0
 cc_alt_vars_2 <= 0
 cc_alt_vars_6 <= 0
 cc_alt_vars_13 <= 0
 cc_alt_vars_14 <= 0
 cc_alt_vars_16 <= 0
 cc_alt_vars_21 <= 0
 cc_alt_vars_4 <= 0
 cc_alt_vars_5 <= 0
 cc_alt_vars_23 <= 0
 cc_alt_vars_18 <= 0
 cc_alt_vars_10 <= 0
Scenario 204
Bounds
 cc_alt_vars_9 <= 0
 cc_alt_vars_7 <= 0
 cc_alt_vars_15 <= 0
 cc_alt_vars_19 <= 0
 cc_alt_vars_2 <= 0
 cc_alt_vars_0 <= 0
 cc_alt_vars_6 <= 0
 cc_alt_vars_13 <= 0
 cc_alt_vars_14 <= 0
 cc_alt_vars_16 <= 0
 cc_alt_vars_21 <= 0
 cc_alt_vars_4 <= 0
 cc_alt_vars_5 <= 0
 cc_alt_vars_23 <= 0
 cc_alt_vars_18 <= 0
 cc_alt_vars_10 <= 0
Scenario 205
Bounds
 cc_alt_vars_1 <= 0
 cc_alt_vars_9 <= 0
 cc_alt_vars_7 <= 0
 cc_alt_vars_15 <= 0
 cc_alt_vars_19 <= 0
 cc_alt_vars_0 <= 0
 cc_alt_vars_6 <= 0
 cc_alt_vars_13 <= 0
 cc_alt_vars_14 <= 0
 cc_alt_vars_16 <= 0
 cc_alt_vars_21 <= 0
 cc_alt_vars_4 <= 0
 cc_alt_vars_5 <= 0
 cc_alt_vars_23 <= 0
 cc_alt_vars_18 <= 0
 cc_alt_vars_10 <= 0
Scenario 206
Bounds
 cc_alt_vars_1 <= 0
 cc_alt_vars_9 <= 0
 cc_alt_vars_7 <= 0
 cc_alt_vars_15 <= 0
 cc_alt_vars_19 <= 0
 cc_alt_vars_2 <= 0
 cc_alt_vars_6 <= 0
 cc_alt_vars_3 <= 0
 cc_alt_vars_13 <= 0
 cc_alt_vars_14 <= 0
 cc_alt_vars_16 <= 0
 cc_alt_vars_21 <= 0
 cc_alt_vars_5 <= 0
 cc_alt_vars_23 <= 0
 cc_alt_vars_18 <= 0
 cc_alt_vars_10 <= 0
Scenario 207
Bounds
 cc_alt_vars_9 <= 0
 cc_alt_vars_7 <= 0
 cc_alt_vars_15 <= 0
 cc_alt_vars_19 <= 0
 cc_alt_vars_2 <= 0
 cc_alt_vars_0 <= 0
 cc_alt_vars_6 <= 0
 cc_alt_vars_3 <= 0
 cc_alt_vars_13 <= 0
 cc_alt_vars_14 <= 0
 cc_alt_vars_16 <= 0
 cc_alt_vars_21 <= 0
 cc_alt_vars_5 <= 0
 cc_alt_vars_23 <= 0
 cc_alt_vars_18 <= 0
 cc_alt_vars_10 <= 0
Scenario 208
Bounds
 cc_alt_vars_1 <= 0
 cc_alt_vars_9 <= 0
 cc_alt_vars_7 <= 0
 cc_alt_vars_15 <= 0
 cc_alt_vars_19 <= 0
 cc_alt_vars_0 <= 0
 cc_alt_vars_6 <= 0
 cc_alt_vars_3 <= 0
 cc_alt_vars_13 <= 0
 cc_alt_vars_14 <= 0
 cc_alt_vars_16 <= 0
 cc_alt_vars_21 <= 0
 cc_alt_vars_5 <= 0
 cc_alt_vars_23 <= 0
 cc_alt_vars_18 <= 0
 cc_alt_vars_10 <= 0
Scenario 209
Bounds
 cc_alt_vars_1 <= 0
 cc_alt_vars_9 <= 0
 cc_alt_vars_7 <= 0
 cc_alt_vars_15 <= 0
 cc_alt_vars_19 <= 0
 cc_alt_vars_2 <= 0
 cc_alt_vars_6 <= 0
 cc_alt_vars_3 <= 0
 cc_alt_vars_13 <= 0
 cc_alt_vars_14 <= 0
 cc_alt_vars_16 <= 0
 cc_alt_vars_21 <= 0
 cc_alt_vars_4 <= 0
 cc_alt_vars_23 <= 0
 cc_alt_vars_18 <= 0
 cc_alt_vars_10 <= 0
Scenario 210
Bounds
 cc_alt_vars_9 <= 0
 cc_alt_vars_7 <= 0
 cc_alt_vars_15 <= 0
 cc_alt_vars_19 <= 0
 cc_alt_vars_2 <= 0
 cc_alt_vars_0 <= 0
 cc_alt_vars_6 <= 0
 cc_alt_vars_3 <= 0
 cc_alt_vars_13 <= 0
 cc_alt_vars_14 <= 0
 cc_alt_vars_16 <= 0
 cc_alt_vars_21 <= 0
 cc_alt_vars_4 <= 0
 cc_alt_vars_23 <= 0
 cc_alt_vars_18 <= 0
 cc_alt_vars_10 <= 0
Scenario 211
Bounds
 cc_alt_vars_1 <= 0
 cc_alt_vars_9 <= 0
 cc_alt_vars_7 <= 0
 cc_alt_vars_15 <= 0
 cc_alt_vars_19 <= 0
 cc_alt_vars_0 <= 0
 cc_alt_vars_6 <= 0
 cc_alt_vars_3 <= 0
 cc_alt_vars_13 <= 0
 cc_alt_vars_14 <= 0
 cc_alt_vars_16 <= 0
 cc_alt_vars_21 <= 0
 cc_alt_vars_4 <= 0
 cc_alt_vars_23 <= 0
 cc_alt_vars_18 <= 0
 cc_alt_vars_10 <= 0
Scenario 212
Bounds
 cc_alt_vars_1 <= 0
 cc_alt_vars_8 <= 0
 cc_alt_vars_7 <= 0
 cc_alt_vars_15 <= 0
 cc_alt_vars_19 <= 0
 cc_alt_vars_2 <= 0
 cc_alt_vars_14 <= 0
 cc_alt_vars_16 <= 0
 cc_alt_vars_21 <= 0
 cc_alt_vars_11 <= 0
 cc_alt_vars_4 <= 0
 cc_alt_vars_12 <= 0
 cc_alt_vars_5 <= 0
 cc_alt_vars_23 <= 0
 cc_alt_vars_18 <= 0
 cc_alt_vars_10 <= 0
Scenario 213
Bounds
 cc_alt_vars_8 <= 0
 cc_alt_vars_7 <= 0
 cc_alt_vars_15 <= 0
 cc_alt_vars_19 <= 0
 cc_alt_vars_2 <= 0
 cc_alt_vars_0 <= 0
 cc_alt_vars_14 <= 0
 cc_alt_vars_16 <= 0
 cc_alt_vars_21 <= 0
 cc_alt_vars_11 <= 0
 cc_alt_vars_4 <= 0
 cc_alt_vars_12 <= 0
 cc_alt_vars_5 <= 0
 cc_alt_vars_23 <= 0
 cc_alt_vars_18 <= 0
 cc_alt_vars_10 <= 0
Scenario 214
Bounds
 cc_alt_vars_1 <= 0
 cc_alt_vars_8 <= 0
 cc_alt_vars_7 <= 0
 cc_alt_vars_15 <= 0
 cc_alt_vars_19 <= 0
 cc_alt_vars_0 <= 0
 cc_alt_vars_14 <= 0
 cc_alt_vars_16 <= 0
 cc_alt_vars_21 <= 0
 cc_alt_vars_11 <= 0
 cc_alt_vars_4 <= 0
 cc_alt_vars_12 <= 0
 cc_alt_vars_5 <= 0
 cc_alt_vars_23 <= 0
 cc_alt_vars_18 <= 0
 cc_alt_vars_10 <= 0
Scenario 215
Bounds
 cc_alt_vars_1 <= 0
 cc_alt_vars_8 <= 0
 cc_alt_vars_7 <= 0
 cc_alt_vars_15 <= 0
 cc_alt_vars_19 <= 0
 cc_alt_vars_2 <= 0
 cc_alt_vars_3 <= 0
 cc_alt_vars_14 <= 0
 cc_alt_vars_16 <= 0
 cc_alt_vars_21 <= 0
 cc_alt_vars_11 <= 0
 cc_alt_vars_12 <= 0
 cc_alt_vars_5 <= 0
 cc_alt_vars_23 <= 0
 cc_alt_vars_18 <= 0
 cc_alt_vars_10 <= 0
Scenario 216
Bounds
 cc_alt_vars_8 <= 0
 cc_alt_vars_7 <= 0
 cc_alt_vars_15 <= 0
 cc_alt_vars_19 <= 0
 cc_alt_vars_2 <= 0
 cc_alt_vars_0 <= 0
 cc_alt_vars_3 <= 0
 cc_alt_vars_14 <= 0
 cc_alt_vars_16 <= 0
 cc_alt_vars_21 <= 0
 cc_alt_vars_11 <= 0
 cc_alt_vars_12 <= 0
 cc_alt_vars_5 <= 0
 cc_alt_vars_23 <= 0
 cc_alt_vars_18 <= 0
 cc_alt_vars_10 <= 0
Scenario 217
Bounds
 cc_alt_vars_1 <= 0
 cc_alt_vars_8 <= 0
 cc_alt_vars_7 <= 0
 cc_alt_vars_15 <= 0
 cc_alt_vars_19 <= 0
 cc_alt_vars_0 <= 0
 cc_alt_vars_3 <= 0
 cc_alt_vars_14 <= 0
 cc_alt_vars_16 <= 0
 cc_alt_vars_21 <= 0
 cc_alt_vars_11 <= 0
 cc_alt_vars_12 <= 0
 cc_alt_vars_5 <= 0
 cc_alt_vars_23 <= 0
 cc_alt_vars_18 <= 0
 cc_alt_vars_10 <= 0
Scenario 218
Bounds
 cc_alt_vars_1 <= 0
 cc_alt_vars_8 <= 0
 cc_alt_vars_7 <= 0
 cc_alt_vars_15 <= 0
 cc_alt_vars_19 <= 0
 cc_alt_vars_2 <= 0
 cc_alt_vars_3 <= 0
 cc_alt_vars_14 <= 0
 cc_alt_vars_16 <= 0
 cc_alt_vars_21 <= 0
 cc_alt_vars_11 <= 0
 cc_alt_vars_4 <= 0
 cc_alt_vars_12 <= 0
 cc_alt_vars_23 <= 0
 cc_alt_vars_18 <= 0
 cc_alt_vars_10 <= 0
Scenario 219
Bounds
 cc_alt_vars_8 <= 0
 cc_alt_vars_7 <= 0
 cc_alt_vars_15 <= 0
 cc_alt_vars_19 <= 0
 cc_alt_vars_2 <= 0
 cc_alt_vars_0 <= 0
 cc_alt_vars_3 <= 0
 cc_alt_vars_14 <= 0
 cc_alt_vars_16 <= 0
 cc_alt_vars_21 <= 0
 cc_alt_vars_11 <= 0
 cc_alt_vars_4 <= 0
 cc_alt_vars_12 <= 0
 cc_alt_vars_23 <= 0
 cc_alt_vars_18 <= 0
 cc_alt_vars_10 <= 0
Scenario 220
Bounds
 cc_alt_vars_1 <= 0
 cc_alt_vars_8 <= 0
 cc_alt_vars_7 <= 0
 cc_alt_vars_15 <= 0
 cc_alt_vars_19 <= 0
 cc_alt_vars_0 <= 0
 cc_alt_vars_3 <= 0
 cc_alt_vars_14 <= 0
 cc_alt_vars_16 <= 0
 cc_alt_vars_21 <= 0
 cc_alt_vars_11 <= 0
 cc_alt_vars_4 <= 0
 cc_alt_vars_12 <= 0
 cc_alt_vars_23 <= 0
 cc_alt_vars_18 <= 0
 cc_alt_vars_10 <= 0
Scenario 221
Bounds
 cc_alt_vars_1 <= 0
 cc_alt_vars_8 <= 0
 cc_alt_vars_15 <= 0
 cc_alt_vars_19 <= 0
 cc_alt_vars_2 <= 0
 cc_alt_vars_6 <= 0
 cc_alt_vars_14 <= 0
 cc_alt_vars_16 <= 0
 cc_alt_vars_21 <= 0
 cc_alt_vars_11 <= 0
 cc_alt_vars_4 <= 0
 cc_alt_vars_12 <= 0
 cc_alt_vars_5 <= 0
 cc_alt_vars_23 <= 0
 cc_alt_vars_18 <= 0
 cc_alt_vars_10 <= 0
Scenario 222
Bounds
 cc_alt_vars_8 <= 0
 cc_alt_vars_15 <= 0
 cc_alt_vars_19 <= 0
 cc_alt_vars_2 <= 0
 cc_alt_vars_0 <= 0
 cc_alt_vars_6 <= 0
 cc_alt_vars_14 <= 0
 cc_alt_vars_16 <= 0
 cc_alt_vars_21 <= 0
 cc_alt_vars_11 <= 0
 cc_alt_vars_4 <= 0
 cc_alt_vars_12 <= 0
 cc_alt_vars_5 <= 0
 cc_alt_vars_23 <= 0
 cc_alt_vars_18 <= 0
 cc_alt_vars_10 <= 0
Scenario 223
Bounds
 cc_alt_vars_1 <= 0
 cc_alt_vars_8 <= 0
 cc_alt_vars_15 <= 0
 cc_alt_vars_19 <= 0
 cc_alt_vars_0 <= 0
 cc_alt_vars_6 <= 0
 cc_alt_vars_14 <= 0
 cc_alt_vars_16 <= 0
 cc_alt_vars_21 <= 0
 cc_alt_vars_11 <= 0
 cc_alt_vars_4 <= 0
 cc_alt_vars_12 <= 0
 cc_alt_vars_5 <= 0
 cc_alt_vars_23 <= 0
 cc_alt_vars_18 <= 0
 cc_alt_vars_10 <= 0
Scenario 224
Bounds
 cc_alt_vars_1 <= 0
 cc_alt_vars_8 <= 0
 cc_alt_vars_15 <= 0
 cc_alt_vars_19 <= 0
 cc_alt_vars_2 <= 0
 cc_alt_vars_6 <= 0
 cc_alt_vars_3 <= 0
 cc_alt_vars_14 <= 0
 cc_alt_vars_16 <= 0
 cc_alt_vars_21 <= 0
 cc_alt_vars_11 <= 0
 cc_alt_vars_12 <= 0
 cc_alt_vars_5 <= 0
 cc_alt_vars_23 <= 0
 cc_alt_vars_18 <= 0
 cc_alt_vars_10 <= 0
Scenario 225
Bounds
 cc_alt_vars_8 <= 0
 cc_alt_vars_15 <= 0
 cc_alt_vars_19 <= 0
 cc_alt_vars_2 <= 0
 cc_alt_vars_0 <= 0
 cc_alt_vars_6 <= 0
 cc_alt_vars_3 <= 0
 cc_alt_vars_14 <= 0
 cc_alt_vars_16 <= 0
 cc_alt_vars_21 <= 0
 cc_alt_vars_11 <= 0
 cc_alt_vars_12 <= 0
 cc_alt_vars_5 <= 0
 cc_alt_vars_23 <= 0
 cc_alt_vars_18 <= 0
 cc_alt_vars_10 <= 0
Scenario 226
Bounds
 cc_alt_vars_1 <= 0
 cc_alt_vars_8 <= 0
 cc_alt_vars_15 <= 0
 cc_alt_vars_19 <= 0
 cc_alt_vars_0 <= 0
 cc_alt_vars_6 <= 0
 cc_alt_vars_3 <= 0
 cc_alt_vars_14 <= 0
 cc_alt_vars_16 <= 0
 cc_alt_vars_21 <= 0
 cc_alt_vars_11 <= 0
 cc_alt_vars_12 <= 0
 cc_alt_vars_5 <= 0
 cc_alt_vars_23 <= 0
 cc_alt_vars_18 <= 0
 cc_alt_vars_10 <= 0
Scenario 227
Bounds
 cc_alt_vars_1 <= 0
 cc_alt_vars_8 <= 0
 cc_alt_vars_15 <= 0
 cc_alt_vars_19 <= 0
 cc_alt_vars_2 <= 0
 cc_alt_vars_6 <= 0
 cc_alt_vars_3 <= 0
 cc_alt_vars_14 <= 0
 cc_alt_vars_16 <= 0
 cc_alt_vars_21 <= 0
 cc_alt_vars_11 <= 0
 cc_alt_vars_4 <= 0
 cc_alt_vars_12 <= 0
 cc_alt_vars_23 <= 0
 cc_alt_vars_18 <= 0
 cc_alt_vars_10 <= 0
Scenario 228
Bounds
 cc_alt_vars_8 <= 0
 cc_alt_vars_15 <= 0
 cc_alt_vars_19 <= 0
 cc_alt_vars_2 <= 0
 cc_alt_vars_0 <= 0
 cc_alt_vars_6 <= 0
 cc_alt_vars_3 <= 0
 cc_alt_vars_14 <= 0
 cc_alt_vars_16 <= 0
 cc_alt_vars_21 <= 0
 cc_alt_vars_11 <= 0
 cc_alt_vars_4 <= 0
 cc_alt_vars_12 <= 0
 cc_alt_vars_23 <= 0
 cc_alt_vars_18 <= 0
 cc_alt_vars_10 <= 0
Scenario 229
Bounds
 cc_alt_vars_1 <= 0
 cc_alt_vars_8 <= 0
 cc_alt_vars_15 <= 0
 cc_alt_vars_19 <= 0
 cc_alt_vars_0 <= 0
 cc_alt_vars_6 <= 0
 cc_alt_vars_3 <= 0
 cc_alt_vars_14 <= 0
 cc_alt_vars_16 <= 0
 cc_alt_vars_21 <= 0
 cc_alt_vars_11 <= 0
 cc_alt_vars_4 <= 0
 cc_alt_vars_12 <= 0
 cc_alt_vars_23 <= 0
 cc_alt_vars_18 <= 0
 cc_alt_vars_10 <= 0
Scenario 230
Bounds
 cc_alt_vars_1 <= 0
 cc_alt_vars_7 <= 0
 cc_alt_vars_15 <= 0
 cc_alt_vars_19 <= 0
 cc_alt_vars_2 <= 0
 cc_alt_vars_6 <= 0
 cc_alt_vars_14 <= 0
 cc_alt_vars_16 <= 0
 cc_alt_vars_21 <= 0
 cc_alt_vars_11 <= 0
 cc_alt_vars_4 <= 0
 cc_alt_vars_12 <= 0
 cc_alt_vars_5 <= 0
 cc_alt_vars_23 <= 0
 cc_alt_vars_18 <= 0
 cc_alt_vars_10 <= 0
Scenario 231
Bounds
 cc_alt_vars_7 <= 0
 cc_alt_vars_15 <= 0
 cc_alt_vars_19 <= 0
 cc_alt_vars_2 <= 0
 cc_alt_vars_0 <= 0
 cc_alt_vars_6 <= 0
 cc_alt_vars_14 <= 0
 cc_alt_vars_16 <= 0
 cc_alt_vars_21 <= 0
 cc_alt_vars_11 <= 0
 cc_alt_vars_4 <= 0
 cc_alt_vars_12 <= 0
 cc_alt_vars_5 <= 0
 cc_alt_vars_23 <= 0
 cc_alt_vars_18 <= 0
 cc_alt_vars_10 <= 0
Scenario 232
Bounds
 cc_alt_vars_1 <= 0
 cc_alt_vars_7 <= 0
 cc_alt_vars_15 <= 0
 cc_alt_vars_19 <= 0
 cc_alt_vars_0 <= 0
 cc_alt_vars_6 <= 0
 cc_alt_vars_14 <= 0
 cc_alt_vars_16 <= 0
 cc_alt_vars_21 <= 0
 cc_alt_vars_11 <= 0
 cc_alt_vars_4 <= 0
 cc_alt_vars_12 <= 0
 cc_alt_vars_5 <= 0
 cc_alt_vars_23 <= 0
 cc_alt_vars_18 <= 0
 cc_alt_vars_10 <= 0
Scenario 233
Bounds
 cc_alt_vars_1 <= 0
 cc_alt_vars_7 <= 0
 cc_alt_vars_15 <= 0
 cc_alt_vars_19 <= 0
 cc_alt_vars_2 <= 0
 cc_alt_vars_6 <= 0
 cc_alt_vars_3 <= 0
 cc_alt_vars_14 <= 0
 cc_alt_vars_16 <= 0
 cc_alt_vars_21 <= 0
 cc_alt_vars_11 <= 0
 cc_alt_vars_12 <= 0
 cc_alt_vars_5 <= 0
 cc_alt_vars_23 <= 0
 cc_alt_vars_18 <= 0
 cc_alt_vars_10 <= 0
Scenario 234
Bounds
 cc_alt_vars_7 <= 0
 cc_alt_vars_15 <= 0
 cc_alt_vars_19 <= 0
 cc_alt_vars_2 <= 0
 cc_alt_vars_0 <= 0
 cc_alt_vars_6 <= 0
 cc_alt_vars_3 <= 0
 cc_alt_vars_14 <= 0
 cc_alt_vars_16 <= 0
 cc_alt_vars_21 <= 0
 cc_alt_vars_11 <= 0
 cc_alt_vars_12 <= 0
 cc_alt_vars_5 <= 0
 cc_alt_vars_23 <= 0
 cc_alt_vars_18 <= 0
 cc_alt_vars_10 <= 0
Scenario 235
Bounds
 cc_alt_vars_1 <= 0
 cc_alt_vars_7 <= 0
 cc_alt_vars_15 <= 0
 cc_alt_vars_19 <= 0
 cc_alt_vars_0 <= 0
 cc_alt_vars_6 <= 0
 cc_alt_vars_3 <= 0
 cc_alt_vars_14 <= 0
 cc_alt_vars_16 <= 0
 cc_alt_vars_21 <= 0
 cc_alt_vars_11 <= 0
 cc_alt_vars_12 <= 0
 cc_alt_vars_5 <= 0
 cc_alt_vars_23 <= 0
 cc_alt_vars_18 <= 0
 cc_alt_vars_10 <= 0
Scenario 236
Bounds
 cc_alt_vars_1 <= 0
 cc_alt_vars_7 <= 0
 cc_alt_vars_15 <= 0
 cc_alt_vars_19 <= 0
 cc_alt_vars_2 <= 0
 cc_alt_vars_6 <= 0
 cc_alt_vars_3 <= 0
 cc_alt_vars_14 <= 0
 cc_alt_vars_16 <= 0
 cc_alt_vars_21 <= 0
 cc_alt_vars_11 <= 0
 cc_alt_vars_4 <= 0
 cc_alt_vars_12 <= 0
 cc_alt_vars_23 <= 0
 cc_alt_vars_18 <= 0
 cc_alt_vars_10 <= 0
Scenario 237
Bounds
 cc_alt_vars_7 <= 0
 cc_alt_vars_15 <= 0
 cc_alt_vars_19 <= 0
 cc_alt_vars_2 <= 0
 cc_alt_vars_0 <= 0
 cc_alt_vars_6 <= 0
 cc_alt_vars_3 <= 0
 cc_alt_vars_14 <= 0
 cc_alt_vars_16 <= 0
 cc_alt_vars_21 <= 0
 cc_alt_vars_11 <= 0
 cc_alt_vars_4 <= 0
 cc_alt_vars_12 <= 0
 cc_alt_vars_23 <= 0
 cc_alt_vars_18 <= 0
 cc_alt_vars_10 <= 0
Scenario 238
Bounds
 cc_alt_vars_1 <= 0
 cc_alt_vars_7 <= 0
 cc_alt_vars_15 <= 0
 cc_alt_vars_19 <= 0
 cc_alt_vars_0 <= 0
 cc_alt_vars_6 <= 0
 cc_alt_vars_3 <= 0
 cc_alt_vars_14 <= 0
 cc_alt_vars_16 <= 0
 cc_alt_vars_21 <= 0
 cc_alt_vars_11 <= 0
 cc_alt_vars_4 <= 0
 cc_alt_vars_12 <= 0
 cc_alt_vars_23 <= 0
 cc_alt_vars_18 <= 0
 cc_alt_vars_10 <= 0
Scenario 239
Bounds
 cc_alt_vars_1 <= 0
 cc_alt_vars_9 <= 0
 cc_alt_vars_8 <= 0
 cc_alt_vars_7 <= 0
 cc_alt_vars_15 <= 0
 cc_alt_vars_19 <= 0
 cc_alt_vars_2 <= 0
 cc_alt_vars_14 <= 0
 cc_alt_vars_16 <= 0
 cc_alt_vars_21 <= 0
 cc_alt_vars_11 <= 0
 cc_alt_vars_4 <= 0
 cc_alt_vars_12 <= 0
 cc_alt_vars_5 <= 0
 cc_alt_vars_23 <= 0
 cc_alt_vars_18 <= 0
Scenario 240
Bounds
 cc_alt_vars_9 <= 0
 cc_alt_vars_8 <= 0
 cc_alt_vars_7 <= 0
 cc_alt_vars_15 <= 0
 cc_alt_vars_19 <= 0
 cc_alt_vars_2 <= 0
 cc_alt_vars_0 <= 0
 cc_alt_vars_14 <= 0
 cc_alt_vars_16 <= 0
 cc_alt_vars_21 <= 0
 cc_alt_vars_11 <= 0
 cc_alt_vars_4 <= 0
 cc_alt_vars_12 <= 0
 cc_alt_vars_5 <= 0
 cc_alt_vars_23 <= 0
 cc_alt_vars_18 <= 0
Scenario 241
Bounds
 cc_alt_vars_1 <= 0
 cc_alt_vars_9 <= 0
 cc_alt_vars_8 <= 0
 cc_alt_vars_7 <= 0
 cc_alt_vars_15 <= 0
 cc_alt_vars_19 <= 0
 cc_alt_vars_0 <= 0
 cc_alt_vars_14 <= 0
 cc_alt_vars_16 <= 0
 cc_alt_vars_21 <= 0
 cc_alt_vars_11 <= 0
 cc_alt_vars_4 <= 0
 cc_alt_vars_12 <= 0
 cc_alt_vars_5 <= 0
 cc_alt_vars_23 <= 0
 cc_alt_vars_18 <= 0
Scenario 242
Bounds
 cc_alt_vars_1 <= 0
 cc_alt_vars_9 <= 0
 cc_alt_vars_8 <= 0
 cc_alt_vars_7 <= 0
 cc_alt_vars_15 <= 0
 cc_alt_vars_19 <= 0
 cc_alt_vars_2 <= 0
 cc_alt_vars_3 <= 0
 cc_alt_vars_14 <= 0
 cc_alt_vars_16 <= 0
 cc_alt_vars_21 <= 0
 cc_alt_vars_11 <= 0
 cc_alt_vars_12 <= 0
 cc_alt_vars_5 <= 0
 cc_alt_vars_23 <= 0
 cc_alt_vars_18 <= 0
Scenario 243
Bounds
 cc_alt_vars_9 <= 0
 cc_alt_vars_8 <= 0
 cc_alt_vars_7 <= 0
 cc_alt_vars_15 <= 0
 cc_alt_vars_19 <= 0
 cc_alt_vars_2 <= 0
 cc_alt_vars_0 <= 0
 cc_alt_vars_3 <= 0
 cc_alt_vars_14 <= 0
 cc_alt_vars_16 <= 0
 cc_alt_vars_21 <= 0
 cc_alt_vars_11 <= 0
 cc_alt_vars_12 <= 0
 cc_alt_vars_5 <= 0
 cc_alt_vars_23 <= 0
 cc_alt_vars_18 <= 0
Scenario 244
Bounds
 cc_alt_vars_1 <= 0
 cc_alt_vars_9 <= 0
 cc_alt_vars_8 <= 0
 cc_alt_vars_7 <= 0
 cc_alt_vars_15 <= 0
 cc_alt_vars_19 <= 0
 cc_alt_vars_0 <= 0
 cc_alt_vars_3 <= 0
 cc_alt_vars_14 <= 0
 cc_alt_vars_16 <= 0
 cc_alt_vars_21 <= 0
 cc_alt_vars_11 <= 0
 cc_alt_vars_12 <= 0
 cc_alt_vars_5 <= 0
 cc_alt_vars_23 <= 0
 cc_alt_vars_18 <= 0
Scenario 245
Bounds
 cc_alt_vars_1 <= 0
 cc_alt_vars_9 <= 0
 cc_alt_vars_8 <= 0
 cc_alt_vars_7 <= 0
 cc_alt_vars_15 <= 0
 cc_alt_vars_19 <= 0
 cc_alt_vars_2 <= 0
 cc_alt_vars_3 <= 0
 cc_alt_vars_14 <= 0
 cc_alt_vars_16 <= 0
 cc_alt_vars_21 <= 0
 cc_alt_vars_11 <= 0
 cc_alt_vars_4 <= 0
 cc_alt_vars_12 <= 0
 cc_alt_vars_23 <= 0
 cc_alt_vars_18 <= 0
Scenario 246
Bounds
 cc_alt_vars_9 <= 0
 cc_alt_vars_8 <= 0
 cc_alt_vars_7 <= 0
 cc_alt_vars_15 <= 0
 cc_alt_vars_19 <= 0
 cc_alt_vars_2 <= 0
 cc_alt_vars_0 <= 0
 cc_alt_vars_3 <= 0
 cc_alt_vars_14 <= 0
 cc_alt_vars_16 <= 0
 cc_alt_vars_21 <= 0
 cc_alt_vars_11 <= 0
 cc_alt_vars_4 <= 0
 cc_alt_vars_12 <= 0
 cc_alt_vars_23 <= 0
 cc_alt_vars_18 <= 0
Scenario 247
Bounds
 cc_alt_vars_1 <= 0
 cc_alt_vars_9 <= 0
 cc_alt_vars_8 <= 0
 cc_alt_vars_7 <= 0
 cc_alt_vars_15 <= 0
 cc_alt_vars_19 <= 0
 cc_alt_vars_0 <= 0
 cc_alt_vars_3 <= 0
 cc_alt_vars_14 <= 0
 cc_alt_vars_16 <= 0
 cc_alt_vars_21 <= 0
 cc_alt_vars_11 <= 0
 cc_alt_vars_4 <= 0
 cc_alt_vars_12 <= 0
 cc_alt_vars_23 <= 0
 cc_alt_vars_18 <= 0
Scenario 248
Bounds
 cc_alt_vars_1 <= 0
 cc_alt_vars_9 <= 0
 cc_alt_vars_8 <= 0
 cc_alt_vars_15 <= 0
 cc_alt_vars_19 <= 0
 cc_alt_vars_2 <= 0
 cc_alt_vars_6 <= 0
 cc_alt_vars_14 <= 0
 cc_alt_vars_16 <= 0
 cc_alt_vars_21 <= 0
 cc_alt_vars_11 <= 0
 cc_alt_vars_4 <= 0
 cc_alt_vars_12 <= 0
 cc_alt_vars_5 <= 0
 cc_alt_vars_23 <= 0
 cc_alt_vars_18 <= 0
Scenario 249
Bounds
 cc_alt_vars_9 <= 0
 cc_alt_vars_8 <= 0
 cc_alt_vars_15 <= 0
 cc_alt_vars_19 <= 0
 cc_alt_vars_2 <= 0
 cc_alt_vars_0 <= 0
 cc_alt_vars_6 <= 0
 cc_alt_vars_14 <= 0
 cc_alt_vars_16 <= 0
 cc_alt_vars_21 <= 0
 cc_alt_vars_11 <= 0
 cc_alt_vars_4 <= 0
 cc_alt_vars_12 <= 0
 cc_alt_vars_5 <= 0
 cc_alt_vars_23 <= 0
 cc_alt_vars_18 <= 0
Scenario 250
Bounds
 cc_alt_vars_1 <= 0
 cc_alt_vars_9 <= 0
 cc_alt_vars_8 <= 0
 cc_alt_vars_15 <= 0
 cc_alt_vars_19 <= 0
 cc_alt_vars_0 <= 0
 cc_alt_vars_6 <= 0
 cc_alt_vars_14 <= 0
 cc_alt_vars_16 <= 0
 cc_alt_vars_21 <= 0
 cc_alt_vars_11 <= 0
 cc_alt_vars_4 <= 0
 cc_alt_vars_12 <= 0
 cc_alt_vars_5 <= 0
 cc_alt_vars_23 <= 0
 cc_alt_vars_18 <= 0
Scenario 251
Bounds
 cc_alt_vars_1 <= 0
 cc_alt_vars_9 <= 0
 cc_alt_vars_8 <= 0
 cc_alt_vars_15 <= 0
 cc_alt_vars_19 <= 0
 cc_alt_vars_2 <= 0
 cc_alt_vars_6 <= 0
 cc_alt_vars_3 <= 0
 cc_alt_vars_14 <= 0
 cc_alt_vars_16 <= 0
 cc_alt_vars_21 <= 0
 cc_alt_vars_11 <= 0
 cc_alt_vars_12 <= 0
 cc_alt_vars_5 <= 0
 cc_alt_vars_23 <= 0
 cc_alt_vars_18 <= 0
Scenario 252
Bounds
 cc_alt_vars_9 <= 0
 cc_alt_vars_8 <= 0
 cc_alt_vars_15 <= 0
 cc_alt_vars_19 <= 0
 cc_alt_vars_2 <= 0
 cc_alt_vars_0 <= 0
 cc_alt_vars_6 <= 0
 cc_alt_vars_3 <= 0
 cc_alt_vars_14 <= 0
 cc_alt_vars_16 <= 0
 cc_alt_vars_21 <= 0
 cc_alt_vars_11 <= 0
 cc_alt_vars_12 <= 0
 cc_alt_vars_5 <= 0
 cc_alt_vars_23 <= 0
 cc_alt_vars_18 <= 0
Scenario 253
Bounds
 cc_alt_vars_1 <= 0
 cc_alt_vars_9 <= 0
 cc_alt_vars_8 <= 0
 cc_alt_vars_15 <= 0
 cc_alt_vars_19 <= 0
 cc_alt_vars_0 <= 0
 cc_alt_vars_6 <= 0
 cc_alt_vars_3 <= 0
 cc_alt_vars_14 <= 0
 cc_alt_vars_16 <= 0
 cc_alt_vars_21 <= 0
 cc_alt_vars_11 <= 0
 cc_alt_vars_12 <= 0
 cc_alt_vars_5 <= 0
 cc_alt_vars_23 <= 0
 cc_alt_vars_18 <= 0
Scenario 254
Bounds
 cc_alt_vars_1 <= 0
 cc_alt_vars_9 <= 0
 cc_alt_vars_8 <= 0
 cc_alt_vars_15 <= 0
 cc_alt_vars_19 <= 0
 cc_alt_vars_2 <= 0
 cc_alt_vars_6 <= 0
 cc_alt_vars_3 <= 0
 cc_alt_vars_14 <= 0
 cc_alt_vars_16 <= 0
 cc_alt_vars_21 <= 0
 cc_alt_vars_11 <= 0
 cc_alt_vars_4 <= 0
 cc_alt_vars_12 <= 0
 cc_alt_vars_23 <= 0
 cc_alt_vars_18 <= 0
Scenario 255
Bounds
 cc_alt_vars_9 <= 0
 cc_alt_vars_8 <= 0
 cc_alt_vars_15 <= 0
 cc_alt_vars_19 <= 0
 cc_alt_vars_2 <= 0
 cc_alt_vars_0 <= 0
 cc_alt_vars_6 <= 0
 cc_alt_vars_3 <= 0
 cc_alt_vars_14 <= 0
 cc_alt_vars_16 <= 0
 cc_alt_vars_21 <= 0
 cc_alt_vars_11 <= 0
 cc_alt_vars_4 <= 0
 cc_alt_vars_12 <= 0
 cc_alt_vars_23 <= 0
 cc_alt_vars_18 <= 0
Scenario 256
Bounds
 cc_alt_vars_1 <= 0
 cc_alt_vars_9 <= 0
 cc_alt_vars_8 <= 0
 cc_alt_vars_15 <= 0
 cc_alt_vars_19 <= 0
 cc_alt_vars_0 <= 0
 cc_alt_vars_6 <= 0
 cc_alt_vars_3 <= 0
 cc_alt_vars_14 <= 0
 cc_alt_vars_16 <= 0
 cc_alt_vars_21 <= 0
 cc_alt_vars_11 <= 0
 cc_alt_vars_4 <= 0
 cc_alt_vars_12 <= 0
 cc_alt_vars_23 <= 0
 cc_alt_vars_18 <= 0
Scenario 257
Bounds
 cc_alt_vars_1 <= 0
 cc_alt_vars_9 <= 0
 cc_alt_vars_7 <= 0
 cc_alt_vars_15 <= 0
 cc_alt_vars_19 <= 0
 cc_alt_vars_2 <= 0
 cc_alt_vars_6 <= 0
 cc_alt_vars_14 <= 0
 cc_alt_vars_16 <= 0
 cc_alt_vars_21 <= 0
 cc_alt_vars_11 <= 0
 cc_alt_vars_4 <= 0
 cc_alt_vars_12 <= 0
 cc_alt_vars_5 <= 0
 cc_alt_vars_23 <= 0
 cc_alt_vars_18 <= 0
Scenario 258
Bounds
 cc_alt_vars_9 <= 0
 cc_alt_vars_7 <= 0
 cc_alt_vars_15 <= 0
 cc_alt_vars_19 <= 0
 cc_alt_vars_2 <= 0
 cc_alt_vars_0 <= 0
 cc_alt_vars_6 <= 0
 cc_alt_vars_14 <= 0
 cc_alt_vars_16 <= 0
 cc_alt_vars_21 <= 0
 cc_alt_vars_11 <= 0
 cc_alt_vars_4 <= 0
 cc_alt_vars_12 <= 0
 cc_alt_vars_5 <= 0
 cc_alt_vars_23 <= 0
 cc_alt_vars_18 <= 0
Scenario 259
Bounds
 cc_alt_vars_1 <= 0
 cc_alt_vars_9 <= 0
 cc_alt_vars_7 <= 0
 cc_alt_vars_15 <= 0
 cc_alt_vars_19 <= 0
 cc_alt_vars_0 <= 0
 cc_alt_vars_6 <= 0
 cc_alt_vars_14 <= 0
 cc_alt_vars_16 <= 0
 cc_alt_vars_21 <= 0
 cc_alt_vars_11 <= 0
 cc_alt_vars_4 <= 0
 cc_alt_vars_12 <= 0
 cc_alt_vars_5 <= 0
 cc_alt_vars_23 <= 0
 cc_alt_vars_18 <= 0
Scenario 260
Bounds
 cc_alt_vars_1 <= 0
 cc_alt_vars_9 <= 0
 cc_alt_vars_7 <= 0
 cc_alt_vars_15 <= 0
 cc_alt_vars_19 <= 0
 cc_alt_vars_2 <= 0
 cc_alt_vars_6 <= 0
 cc_alt_vars_3 <= 0
 cc_alt_vars_14 <= 0
 cc_alt_vars_16 <= 0
 cc_alt_vars_21 <= 0
 cc_alt_vars_11 <= 0
 cc_alt_vars_12 <= 0
 cc_alt_vars_5 <= 0
 cc_alt_vars_23 <= 0
 cc_alt_vars_18 <= 0
Scenario 261
Bounds
 cc_alt_vars_9 <= 0
 cc_alt_vars_7 <= 0
 cc_alt_vars_15 <= 0
 cc_alt_vars_19 <= 0
 cc_alt_vars_2 <= 0
 cc_alt_vars_0 <= 0
 cc_alt_vars_6 <= 0
 cc_alt_vars_3 <= 0
 cc_alt_vars_14 <= 0
 cc_alt_vars_16 <= 0
 cc_alt_vars_21 <= 0
 cc_alt_vars_11 <= 0
 cc_alt_vars_12 <= 0
 cc_alt_vars_5 <= 0
 cc_alt_vars_23 <= 0
 cc_alt_vars_18 <= 0
Scenario 262
Bounds
 cc_alt_vars_1 <= 0
 cc_alt_vars_9 <= 0
 cc_alt_vars_7 <= 0
 cc_alt_vars_15 <= 0
 cc_alt_vars_19 <= 0
 cc_alt_vars_0 <= 0
 cc_alt_vars_6 <= 0
 cc_alt_vars_3 <= 0
 cc_alt_vars_14 <= 0
 cc_alt_vars_16 <= 0
 cc_alt_vars_21 <= 0
 cc_alt_vars_11 <= 0
 cc_alt_vars_12 <= 0
 cc_alt_vars_5 <= 0
 cc_alt_vars_23 <= 0
 cc_alt_vars_18 <= 0
Scenario 263
Bounds
 cc_alt_vars_1 <= 0
 cc_alt_vars_9 <= 0
 cc_alt_vars_7 <= 0
 cc_alt_vars_15 <= 0
 cc_alt_vars_19 <= 0
 cc_alt_vars_2 <= 0
 cc_alt_vars_6 <= 0
 cc_alt_vars_3 <= 0
 cc_alt_vars_14 <= 0
 cc_alt_vars_16 <= 0
 cc_alt_vars_21 <= 0
 cc_alt_vars_11 <= 0
 cc_alt_vars_4 <= 0
 cc_alt_vars_12 <= 0
 cc_alt_vars_23 <= 0
 cc_alt_vars_18 <= 0
Scenario 264
Bounds
 cc_alt_vars_9 <= 0
 cc_alt_vars_7 <= 0
 cc_alt_vars_15 <= 0
 cc_alt_vars_19 <= 0
 cc_alt_vars_2 <= 0
 cc_alt_vars_0 <= 0
 cc_alt_vars_6 <= 0
 cc_alt_vars_3 <= 0
 cc_alt_vars_14 <= 0
 cc_alt_vars_16 <= 0
 cc_alt_vars_21 <= 0
 cc_alt_vars_11 <= 0
 cc_alt_vars_4 <= 0
 cc_alt_vars_12 <= 0
 cc_alt_vars_23 <= 0
 cc_alt_vars_18 <= 0
Scenario 265
Bounds
 cc_alt_vars_1 <= 0
 cc_alt_vars_9 <= 0
 cc_alt_vars_7 <= 0
 cc_alt_vars_15 <= 0
 cc_alt_vars_19 <= 0
 cc_alt_vars_0 <= 0
 cc_alt_vars_6 <= 0
 cc_alt_vars_3 <= 0
 cc_alt_vars_14 <= 0
 cc_alt_vars_16 <= 0
 cc_alt_vars_21 <= 0
 cc_alt_vars_11 <= 0
 cc_alt_vars_4 <= 0
 cc_alt_vars_12 <= 0
 cc_alt_vars_23 <= 0
 cc_alt_vars_18 <= 0
Scenario 266
Bounds
 cc_alt_vars_1 <= 0
 cc_alt_vars_9 <= 0
 cc_alt_vars_8 <= 0
 cc_alt_vars_7 <= 0
 cc_alt_vars_15 <= 0
 cc_alt_vars_19 <= 0
 cc_alt_vars_2 <= 0
 cc_alt_vars_14 <= 0
 cc_alt_vars_16 <= 0
 cc_alt_vars_21 <= 0
 cc_alt_vars_4 <= 0
 cc_alt_vars_12 <= 0
 cc_alt_vars_5 <= 0
 cc_alt_vars_23 <= 0
 cc_alt_vars_18 <= 0
 cc_alt_vars_10 <= 0
Scenario 267
Bounds
 cc_alt_vars_9 <= 0
 cc_alt_vars_8 <= 0
 cc_alt_vars_7 <= 0
 cc_alt_vars_15 <= 0
 cc_alt_vars_19 <= 0
 cc_alt_vars_2 <= 0
 cc_alt_vars_0 <= 0
 cc_alt_vars_14 <= 0
 cc_alt_vars_16 <= 0
 cc_alt_vars_21 <= 0
 cc_alt_vars_4 <= 0
 cc_alt_vars_12 <= 0
 cc_alt_vars_5 <= 0
 cc_alt_vars_23 <= 0
 cc_alt_vars_18 <= 0
 cc_alt_vars_10 <= 0
Scenario 268
Bounds
 cc_alt_vars_1 <= 0
 cc_alt_vars_9 <= 0
 cc_alt_vars_8 <= 0
 cc_alt_vars_7 <= 0
 cc_alt_vars_15 <= 0
 cc_alt_vars_19 <= 0
 cc_alt_vars_0 <= 0
 cc_alt_vars_14 <= 0
 cc_alt_vars_16 <= 0
 cc_alt_vars_21 <= 0
 cc_alt_vars_4 <= 0
 cc_alt_vars_12 <= 0
 cc_alt_vars_5 <= 0
 cc_alt_vars_23 <= 0
 cc_alt_vars_18 <= 0
 cc_alt_vars_10 <= 0
Scenario 269
Bounds
 cc_alt_vars_1 <= 0
 cc_alt_vars_9 <= 0
 cc_alt_vars_8 <= 0
 cc_alt_vars_7 <= 0
 cc_alt_vars_15 <= 0
 cc_alt_vars_19 <= 0
 cc_alt_vars_2 <= 0
 cc_alt_vars_3 <= 0
 cc_alt_vars_14 <= 0
 cc_alt_vars_16 <= 0
 cc_alt_vars_21 <= 0
 cc_alt_vars_12 <= 0
 cc_alt_vars_5 <= 0
 cc_alt_vars_23 <= 0
 cc_alt_vars_18 <= 0
 cc_alt_vars_10 <= 0
Scenario 270
Bounds
 cc_alt_vars_9 <= 0
 cc_alt_vars_8 <= 0
 cc_alt_vars_7 <= 0
 cc_alt_vars_15 <= 0
 cc_alt_vars_19 <= 0
 cc_alt_vars_2 <= 0
 cc_alt_vars_0 <= 0
 cc_alt_vars_3 <= 0
 cc_alt_vars_14 <= 0
 cc_alt_vars_16 <= 0
 cc_alt_vars_21 <= 0
 cc_alt_vars_12 <= 0
 cc_alt_vars_5 <= 0
 cc_alt_vars_23 <= 0
 cc_alt_vars_18 <= 0
 cc_alt_vars_10 <= 0
Scenario 271
Bounds
 cc_alt_vars_1 <= 0
 cc_alt_vars_9 <= 0
 cc_alt_vars_8 <= 0
 cc_alt_vars_7 <= 0
 cc_alt_vars_15 <= 0
 cc_alt_vars_19 <= 0
 cc_alt_vars_0 <= 0
 cc_alt_vars_3 <= 0
 cc_alt_vars_14 <= 0
 cc_alt_vars_16 <= 0
 cc_alt_vars_21 <= 0
 cc_alt_vars_12 <= 0
 cc_alt_vars_5 <= 0
 cc_alt_vars_23 <= 0
 cc_alt_vars_18 <= 0
 cc_alt_vars_10 <= 0
Scenario 272
Bounds
 cc_alt_vars_1 <= 0
 cc_alt_vars_9 <= 0
 cc_alt_vars_8 <= 0
 cc_alt_vars_7 <= 0
 cc_alt_vars_15 <= 0
 cc_alt_vars_19 <= 0
 cc_alt_vars_2 <= 0
 cc_alt_vars_3 <= 0
 cc_alt_vars_14 <= 0
 cc_alt_vars_16 <= 0
 cc_alt_vars_21 <= 0
 cc_alt_vars_4 <= 0
 cc_alt_vars_12 <= 0
 cc_alt_vars_23 <= 0
 cc_alt_vars_18 <= 0
 cc_alt_vars_10 <= 0
Scenario 273
Bounds
 cc_alt_vars_9 <= 0
 cc_alt_vars_8 <= 0
 cc_alt_vars_7 <= 0
 cc_alt_vars_15 <= 0
 cc_alt_vars_19 <= 0
 cc_alt_vars_2 <= 0
 cc_alt_vars_0 <= 0
 cc_alt_vars_3 <= 0
 cc_alt_vars_14 <= 0
 cc_alt_vars_16 <= 0
 cc_alt_vars_21 <= 0
 cc_alt_vars_4 <= 0
 cc_alt_vars_12 <= 0
 cc_alt_vars_23 <= 0
 cc_alt_vars_18 <= 0
 cc_alt_vars_10 <= 0
Scenario 274
Bounds
 cc_alt_vars_1 <= 0
 cc_alt_vars_9 <= 0
 cc_alt_vars_8 <= 0
 cc_alt_vars_7 <= 0
 cc_alt_vars_15 <= 0
 cc_alt_vars_19 <= 0
 cc_alt_vars_0 <= 0
 cc_alt_vars_3 <= 0
 cc_alt_vars_14 <= 0
 cc_alt_vars_16 <= 0
 cc_alt_vars_21 <= 0
 cc_alt_vars_4 <= 0
 cc_alt_vars_12 <= 0
 cc_alt_vars_23 <= 0
 cc_alt_vars_18 <= 0
 cc_alt_vars_10 <= 0
Scenario 275
Bounds
 cc_alt_vars_1 <= 0
 cc_alt_vars_9 <= 0
 cc_alt_vars_8 <= 0
 cc_alt_vars_15 <= 0
 cc_alt_vars_19 <= 0
 cc_alt_vars_2 <= 0
 cc_alt_vars_6 <= 0
 cc_alt_vars_14 <= 0
 cc_alt_vars_16 <= 0
 cc_alt_vars_21 <= 0
 cc_alt_vars_4 <= 0
 cc_alt_vars_12 <= 0
 cc_alt_vars_5 <= 0
 cc_alt_vars_23 <= 0
 cc_alt_vars_18 <= 0
 cc_alt_vars_10 <= 0
Scenario 276
Bounds
 cc_alt_vars_9 <= 0
 cc_alt_vars_8 <= 0
 cc_alt_vars_15 <= 0
 cc_alt_vars_19 <= 0
 cc_alt_vars_2 <= 0
 cc_alt_vars_0 <= 0
 cc_alt_vars_6 <= 0
 cc_alt_vars_14 <= 0
 cc_alt_vars_16 <= 0
 cc_alt_vars_21 <= 0
 cc_alt_vars_4 <= 0
 cc_alt_vars_12 <= 0
 cc_alt_vars_5 <= 0
 cc_alt_vars_23 <= 0
 cc_alt_vars_18 <= 0
 cc_alt_vars_10 <= 0
Scenario 277
Bounds
 cc_alt_vars_1 <= 0
 cc_alt_vars_9 <= 0
 cc_alt_vars_8 <= 0
 cc_alt_vars_15 <= 0
 cc_alt_vars_19 <= 0
 cc_alt_vars_0 <= 0
 cc_alt_vars_6 <= 0
 cc_alt_vars_14 <= 0
 cc_alt_vars_16 <= 0
 cc_alt_vars_21 <= 0
 cc_alt_vars_4 <= 0
 cc_alt_vars_12 <= 0
 cc_alt_vars_5 <= 0
 cc_alt_vars_23 <= 0
 cc_alt_vars_18 <= 0
 cc_alt_vars_10 <= 0
Scenario 278
Bounds
 cc_alt_vars_1 <= 0
 cc_alt_vars_9 <= 0
 cc_alt_vars_8 <= 0
 cc_alt_vars_15 <= 0
 cc_alt_vars_19 <= 0
 cc_alt_vars_2 <= 0
 cc_alt_vars_6 <= 0
 cc_alt_vars_3 <= 0
 cc_alt_vars_14 <= 0
 cc_alt_vars_16 <= 0
 cc_alt_vars_21 <= 0
 cc_alt_vars_12 <= 0
 cc_alt_vars_5 <= 0
 cc_alt_vars_23 <= 0
 cc_alt_vars_18 <= 0
 cc_alt_vars_10 <= 0
Scenario 279
Bounds
 cc_alt_vars_9 <= 0
 cc_alt_vars_8 <= 0
 cc_alt_vars_15 <= 0
 cc_alt_vars_19 <= 0
 cc_alt_vars_2 <= 0
 cc_alt_vars_0 <= 0
 cc_alt_vars_6 <= 0
 cc_alt_vars_3 <= 0
 cc_alt_vars_14 <= 0
 cc_alt_vars_16 <= 0
 cc_alt_vars_21 <= 0
 cc_alt_vars_12 <= 0
 cc_alt_vars_5 <= 0
 cc_alt_vars_23 <= 0
 cc_alt_vars_18 <= 0
 cc_alt_vars_10 <= 0
Scenario 280
Bounds
 cc_alt_vars_1 <= 0
 cc_alt_vars_9 <= 0
 cc_alt_vars_8 <= 0
 cc_alt_vars_15 <= 0
 cc_alt_vars_19 <= 0
 cc_alt_vars_0 <= 0
 cc_alt_vars_6 <= 0
 cc_alt_vars_3 <= 0
 cc_alt_vars_14 <= 0
 cc_alt_vars_16 <= 0
 cc_alt_vars_21 <= 0
 cc_alt_vars_12 <= 0
 cc_alt_vars_5 <= 0
 cc_alt_vars_23 <= 0
 cc_alt_vars_18 <= 0
 cc_alt_vars_10 <= 0
Scenario 281
Bounds
 cc_alt_vars_1 <= 0
 cc_alt_vars_9 <= 0
 cc_alt_vars_8 <= 0
 cc_alt_vars_15 <= 0
 cc_alt_vars_19 <= 0
 cc_alt_vars_2 <= 0
 cc_alt_vars_6 <= 0
 cc_alt_vars_3 <= 0
 cc_alt_vars_14 <= 0
 cc_alt_vars_16 <= 0
 cc_alt_vars_21 <= 0
 cc_alt_vars_4 <= 0
 cc_alt_vars_12 <= 0
 cc_alt_vars_23 <= 0
 cc_alt_vars_18 <= 0
 cc_alt_vars_10 <= 0
Scenario 282
Bounds
 cc_alt_vars_9 <= 0
 cc_alt_vars_8 <= 0
 cc_alt_vars_15 <= 0
 cc_alt_vars_19 <= 0
 cc_alt_vars_2 <= 0
 cc_alt_vars_0 <= 0
 cc_alt_vars_6 <= 0
 cc_alt_vars_3 <= 0
 cc_alt_vars_14 <= 0
 cc_alt_vars_16 <= 0
 cc_alt_vars_21 <= 0
 cc_alt_vars_4 <= 0
 cc_alt_vars_12 <= 0
 cc_alt_vars_23 <= 0
 cc_alt_vars_18 <= 0
 cc_alt_vars_10 <= 0
Scenario 283
Bounds
 cc_alt_vars_1 <= 0
 cc_alt_vars_9 <= 0
 cc_alt_vars_8 <= 0
 cc_alt_vars_15 <= 0
 cc_alt_vars_19 <= 0
 cc_alt_vars_0 <= 0
 cc_alt_vars_6 <= 0
 cc_alt_vars_3 <= 0
 cc_alt_vars_14 <= 0
 cc_alt_vars_16 <= 0
 cc_alt_vars_21 <= 0
 cc_alt_vars_4 <= 0
 cc_alt_vars_12 <= 0
 cc_alt_vars_23 <= 0
 cc_alt_vars_18 <= 0
 cc_alt_vars_10 <= 0
Scenario 284
Bounds
 cc_alt_vars_1 <= 0
 cc_alt_vars_9 <= 0
 cc_alt_vars_7 <= 0
 cc_alt_vars_15 <= 0
 cc_alt_vars_19 <= 0
 cc_alt_vars_2 <= 0
 cc_alt_vars_6 <= 0
 cc_alt_vars_14 <= 0
 cc_alt_vars_16 <= 0
 cc_alt_vars_21 <= 0
 cc_alt_vars_4 <= 0
 cc_alt_vars_12 <= 0
 cc_alt_vars_5 <= 0
 cc_alt_vars_23 <= 0
 cc_alt_vars_18 <= 0
 cc_alt_vars_10 <= 0
Scenario 285
Bounds
 cc_alt_vars_9 <= 0
 cc_alt_vars_7 <= 0
 cc_alt_vars_15 <= 0
 cc_alt_vars_19 <= 0
 cc_alt_vars_2 <= 0
 cc_alt_vars_0 <= 0
 cc_alt_vars_6 <= 0
 cc_alt_vars_14 <= 0
 cc_alt_vars_16 <= 0
 cc_alt_vars_21 <= 0
 cc_alt_vars_4 <= 0
 cc_alt_vars_12 <= 0
 cc_alt_vars_5 <= 0
 cc_alt_vars_23 <= 0
 cc_alt_vars_18 <= 0
 cc_alt_vars_10 <= 0
Scenario 286
Bounds
 cc_alt_vars_1 <= 0
 cc_alt_vars_9 <= 0
 cc_alt_vars_7 <= 0
 cc_alt_vars_15 <= 0
 cc_alt_vars_19 <= 0
 cc_alt_vars_0 <= 0
 cc_alt_vars_6 <= 0
 cc_alt_vars_14 <= 0
 cc_alt_vars_16 <= 0
 cc_alt_vars_21 <= 0
 cc_alt_vars_4 <= 0
 cc_alt_vars_12 <= 0
 cc_alt_vars_5 <= 0
 cc_alt_vars_23 <= 0
 cc_alt_vars_18 <= 0
 cc_alt_vars_10 <= 0
Scenario 287
Bounds
 cc_alt_vars_1 <= 0
 cc_alt_vars_9 <= 0
 cc_alt_vars_7 <= 0
 cc_alt_vars_15 <= 0
 cc_alt_vars_19 <= 0
 cc_alt_vars_2 <= 0
 cc_alt_vars_6 <= 0
 cc_alt_vars_3 <= 0
 cc_alt_vars_14 <= 0
 cc_alt_vars_16 <= 0
 cc_alt_vars_21 <= 0
 cc_alt_vars_12 <= 0
 cc_alt_vars_5 <= 0
 cc_alt_vars_23 <= 0
 cc_alt_vars_18 <= 0
 cc_alt_vars_10 <= 0
Scenario 288
Bounds
 cc_alt_vars_9 <= 0
 cc_alt_vars_7 <= 0
 cc_alt_vars_15 <= 0
 cc_alt_vars_19 <= 0
 cc_alt_vars_2 <= 0
 cc_alt_vars_0 <= 0
 cc_alt_vars_6 <= 0
 cc_alt_vars_3 <= 0
 cc_alt_vars_14 <= 0
 cc_alt_vars_16 <= 0
 cc_alt_vars_21 <= 0
 cc_alt_vars_12 <= 0
 cc_alt_vars_5 <= 0
 cc_alt_vars_23 <= 0
 cc_alt_vars_18 <= 0
 cc_alt_vars_10 <= 0
Scenario 289
Bounds
 cc_alt_vars_1 <= 0
 cc_alt_vars_9 <= 0
 cc_alt_vars_7 <= 0
 cc_alt_vars_15 <= 0
 cc_alt_vars_19 <= 0
 cc_alt_vars_0 <= 0
 cc_alt_vars_6 <= 0
 cc_alt_vars_3 <= 0
 cc_alt_vars_14 <= 0
 cc_alt_vars_16 <= 0
 cc_alt_vars_21 <= 0
 cc_alt_vars_12 <= 0
 cc_alt_vars_5 <= 0
 cc_alt_vars_23 <= 0
 cc_alt_vars_18 <= 0
 cc_alt_vars_10 <= 0
Scenario 290
Bounds
 cc_alt_vars_1 <= 0
 cc_alt_vars_9 <= 0
 cc_alt_vars_7 <= 0
 cc_alt_vars_15 <= 0
 cc_alt_vars_19 <= 0
 cc_alt_vars_2 <= 0
 cc_alt_vars_6 <= 0
 cc_alt_vars_3 <= 0
 cc_alt_vars_14 <= 0
 cc_alt_vars_16 <= 0
 cc_alt_vars_21 <= 0
 cc_alt_vars_4 <= 0
 cc_alt_vars_12 <= 0
 cc_alt_vars_23 <= 0
 cc_alt_vars_18 <= 0
 cc_alt_vars_10 <= 0
Scenario 291
Bounds
 cc_alt_vars_9 <= 0
 cc_alt_vars_7 <= 0
 cc_alt_vars_15 <= 0
 cc_alt_vars_19 <= 0
 cc_alt_vars_2 <= 0
 cc_alt_vars_0 <= 0
 cc_alt_vars_6 <= 0
 cc_alt_vars_3 <= 0
 cc_alt_vars_14 <= 0
 cc_alt_vars_16 <= 0
 cc_alt_vars_21 <= 0
 cc_alt_vars_4 <= 0
 cc_alt_vars_12 <= 0
 cc_alt_vars_23 <= 0
 cc_alt_vars_18 <= 0
 cc_alt_vars_10 <= 0
Scenario 292
Bounds
 cc_alt_vars_1 <= 0
 cc_alt_vars_9 <= 0
 cc_alt_vars_7 <= 0
 cc_alt_vars_15 <= 0
 cc_alt_vars_19 <= 0
 cc_alt_vars_0 <= 0
 cc_alt_vars_6 <= 0
 cc_alt_vars_3 <= 0
 cc_alt_vars_14 <= 0
 cc_alt_vars_16 <= 0
 cc_alt_vars_21 <= 0
 cc_alt_vars_4 <= 0
 cc_alt_vars_12 <= 0
 cc_alt_vars_23 <= 0
 cc_alt_vars_18 <= 0
 cc_alt_vars_10 <= 0
Scenario 293
Bounds
 cc_alt_vars_1 <= 0
 cc_alt_vars_8 <= 0
 cc_alt_vars_7 <= 0
 cc_alt_vars_15 <= 0
 cc_alt_vars_19 <= 0
 cc_alt_vars_2 <= 0
 cc_alt_vars_13 <= 0
 cc_alt_vars_16 <= 0
 cc_alt_vars_21 <= 0
 cc_alt_vars_11 <= 0
 cc_alt_vars_4 <= 0
 cc_alt_vars_12 <= 0
 cc_alt_vars_5 <= 0
 cc_alt_vars_23 <= 0
 cc_alt_vars_18 <= 0
 cc_alt_vars_10 <= 0
Scenario 294
Bounds
 cc_alt_vars_8 <= 0
 cc_alt_vars_7 <= 0
 cc_alt_vars_15 <= 0
 cc_alt_vars_19 <= 0
 cc_alt_vars_2 <= 0
 cc_alt_vars_0 <= 0
 cc_alt_vars_13 <= 0
 cc_alt_vars_16 <= 0
 cc_alt_vars_21 <= 0
 cc_alt_vars_11 <= 0
 cc_alt_vars_4 <= 0
 cc_alt_vars_12 <= 0
 cc_alt_vars_5 <= 0
 cc_alt_vars_23 <= 0
 cc_alt_vars_18 <= 0
 cc_alt_vars_10 <= 0
Scenario 295
Bounds
 cc_alt_vars_1 <= 0
 cc_alt_vars_8 <= 0
 cc_alt_vars_7 <= 0
 cc_alt_vars_15 <= 0
 cc_alt_vars_19 <= 0
 cc_alt_vars_0 <= 0
 cc_alt_vars_13 <= 0
 cc_alt_vars_16 <= 0
 cc_alt_vars_21 <= 0
 cc_alt_vars_11 <= 0
 cc_alt_vars_4 <= 0
 cc_alt_vars_12 <= 0
 cc_alt_vars_5 <= 0
 cc_alt_vars_23 <= 0
 cc_alt_vars_18 <= 0
 cc_alt_vars_10 <= 0
Scenario 296
Bounds
 cc_alt_vars_1 <= 0
 cc_alt_vars_8 <= 0
 cc_alt_vars_7 <= 0
 cc_alt_vars_15 <= 0
 cc_alt_vars_19 <= 0
 cc_alt_vars_2 <= 0
 cc_alt_vars_3 <= 0
 cc_alt_vars_13 <= 0
 cc_alt_vars_16 <= 0
 cc_alt_vars_21 <= 0
 cc_alt_vars_11 <= 0
 cc_alt_vars_12 <= 0
 cc_alt_vars_5 <= 0
 cc_alt_vars_23 <= 0
 cc_alt_vars_18 <= 0
 cc_alt_vars_10 <= 0
Scenario 297
Bounds
 cc_alt_vars_8 <= 0
 cc_alt_vars_7 <= 0
 cc_alt_vars_15 <= 0
 cc_alt_vars_19 <= 0
 cc_alt_vars_2 <= 0
 cc_alt_vars_0 <= 0
 cc_alt_vars_3 <= 0
 cc_alt_vars_13 <= 0
 cc_alt_vars_16 <= 0
 cc_alt_vars_21 <= 0
 cc_alt_vars_11 <= 0
 cc_alt_vars_12 <= 0
 cc_alt_vars_5 <= 0
 cc_alt_vars_23 <= 0
 cc_alt_vars_18 <= 0
 cc_alt_vars_10 <= 0
Scenario 298
Bounds
 cc_alt_vars_1 <= 0
 cc_alt_vars_8 <= 0
 cc_alt_vars_7 <= 0
 cc_alt_vars_15 <= 0
 cc_alt_vars_19 <= 0
 cc_alt_vars_0 <= 0
 cc_alt_vars_3 <= 0
 cc_alt_vars_13 <= 0
 cc_alt_vars_16 <= 0
 cc_alt_vars_21 <= 0
 cc_alt_vars_11 <= 0
 cc_alt_vars_12 <= 0
 cc_alt_vars_5 <= 0
 cc_alt_vars_23 <= 0
 cc_alt_vars_18 <= 0
 cc_alt_vars_10 <= 0
Scenario 299
Bounds
 cc_alt_vars_1 <= 0
 cc_alt_vars_8 <= 0
 cc_alt_vars_7 <= 0
 cc_alt_vars_15 <= 0
 cc_alt_vars_19 <= 0
 cc_alt_vars_2 <= 0
 cc_alt_vars_3 <= 0
 cc_alt_vars_13 <= 0
 cc_alt_vars_16 <= 0
 cc_alt_vars_21 <= 0
 cc_alt_vars_11 <= 0
 cc_alt_vars_4 <= 0
 cc_alt_vars_12 <= 0
 cc_alt_vars_23 <= 0
 cc_alt_vars_18 <= 0
 cc_alt_vars_10 <= 0
Scenario 300
Bounds
 cc_alt_vars_8 <= 0
 cc_alt_vars_7 <= 0
 cc_alt_vars_15 <= 0
 cc_alt_vars_19 <= 0
 cc_alt_vars_2 <= 0
 cc_alt_vars_0 <= 0
 cc_alt_vars_3 <= 0
 cc_alt_vars_13 <= 0
 cc_alt_vars_16 <= 0
 cc_alt_vars_21 <= 0
 cc_alt_vars_11 <= 0
 cc_alt_vars_4 <= 0
 cc_alt_vars_12 <= 0
 cc_alt_vars_23 <= 0
 cc_alt_vars_18 <= 0
 cc_alt_vars_10 <= 0
Scenario 301
Bounds
 cc_alt_vars_1 <= 0
 cc_alt_vars_8 <= 0
 cc_alt_vars_7 <= 0
 cc_alt_vars_15 <= 0
 cc_alt_vars_19 <= 0
 cc_alt_vars_0 <= 0
 cc_alt_vars_3 <= 0
 cc_alt_vars_13 <= 0
 cc_alt_vars_16 <= 0
 cc_alt_vars_21 <= 0
 cc_alt_vars_11 <= 0
 cc_alt_vars_4 <= 0
 cc_alt_vars_12 <= 0
 cc_alt_vars_23 <= 0
 cc_alt_vars_18 <= 0
 cc_alt_vars_10 <= 0
Scenario 302
Bounds
 cc_alt_vars_1 <= 0
 cc_alt_vars_8 <= 0
 cc_alt_vars_15 <= 0
 cc_alt_vars_19 <= 0
 cc_alt_vars_2 <= 0
 cc_alt_vars_6 <= 0
 cc_alt_vars_13 <= 0
 cc_alt_vars_16 <= 0
 cc_alt_vars_21 <= 0
 cc_alt_vars_11 <= 0
 cc_alt_vars_4 <= 0
 cc_alt_vars_12 <= 0
 cc_alt_vars_5 <= 0
 cc_alt_vars_23 <= 0
 cc_alt_vars_18 <= 0
 cc_alt_vars_10 <= 0
Scenario 303
Bounds
 cc_alt_vars_8 <= 0
 cc_alt_vars_15 <= 0
 cc_alt_vars_19 <= 0
 cc_alt_vars_2 <= 0
 cc_alt_vars_0 <= 0
 cc_alt_vars_6 <= 0
 cc_alt_vars_13 <= 0
 cc_alt_vars_16 <= 0
 cc_alt_vars_21 <= 0
 cc_alt_vars_11 <= 0
 cc_alt_vars_4 <= 0
 cc_alt_vars_12 <= 0
 cc_alt_vars_5 <= 0
 cc_alt_vars_23 <= 0
 cc_alt_vars_18 <= 0
 cc_alt_vars_10 <= 0
Scenario 304
Bounds
 cc_alt_vars_1 <= 0
 cc_alt_vars_8 <= 0
 cc_alt_vars_15 <= 0
 cc_alt_vars_19 <= 0
 cc_alt_vars_0 <= 0
 cc_alt_vars_6 <= 0
 cc_alt_vars_13 <= 0
 cc_alt_vars_16 <= 0
 cc_alt_vars_21 <= 0
 cc_alt_vars_11 <= 0
 cc_alt_vars_4 <= 0
 cc_alt_vars_12 <= 0
 cc_alt_vars_5 <= 0
 cc_alt_vars_23 <= 0
 cc_alt_vars_18 <= 0
 cc_alt_vars_10 <= 0
Scenario 305
Bounds
 cc_alt_vars_1 <= 0
 cc_alt_vars_8 <= 0
 cc_alt_vars_15 <= 0
 cc_alt_vars_19 <= 0
 cc_alt_vars_2 <= 0
 cc_alt_vars_6 <= 0
 cc_alt_vars_3 <= 0
 cc_alt_vars_13 <= 0
 cc_alt_vars_16 <= 0
 cc_alt_vars_21 <= 0
 cc_alt_vars_11 <= 0
 cc_alt_vars_12 <= 0
 cc_alt_vars_5 <= 0
 cc_alt_vars_23 <= 0
 cc_alt_vars_18 <= 0
 cc_alt_vars_10 <= 0
Scenario 306
Bounds
 cc_alt_vars_8 <= 0
 cc_alt_vars_15 <= 0
 cc_alt_vars_19 <= 0
 cc_alt_vars_2 <= 0
 cc_alt_vars_0 <= 0
 cc_alt_vars_6 <= 0
 cc_alt_vars_3 <= 0
 cc_alt_vars_13 <= 0
 cc_alt_vars_16 <= 0
 cc_alt_vars_21 <= 0
 cc_alt_vars_11 <= 0
 cc_alt_vars_12 <= 0
 cc_alt_vars_5 <= 0
 cc_alt_vars_23 <= 0
 cc_alt_vars_18 <= 0
 cc_alt_vars_10 <= 0
Scenario 307
Bounds
 cc_alt_vars_1 <= 0
 cc_alt_vars_8 <= 0
 cc_alt_vars_15 <= 0
 cc_alt_vars_19 <= 0
 cc_alt_vars_0 <= 0
 cc_alt_vars_6 <= 0
 cc_alt_vars_3 <= 0
 cc_alt_vars_13 <= 0
 cc_alt_vars_16 <= 0
 cc_alt_vars_21 <= 0
 cc_alt_vars_11 <= 0
 cc_alt_vars_12 <= 0
 cc_alt_vars_5 <= 0
 cc_alt_vars_23 <= 0
 cc_alt_vars_18 <= 0
 cc_alt_vars_10 <= 0
Scenario 308
Bounds
 cc_alt_vars_1 <= 0
 cc_alt_vars_8 <= 0
 cc_alt_vars_15 <= 0
 cc_alt_vars_19 <= 0
 cc_alt_vars_2 <= 0
 cc_alt_vars_6 <= 0
 cc_alt_vars_3 <= 0
 cc_alt_vars_13 <= 0
 cc_alt_vars_16 <= 0
 cc_alt_vars_21 <= 0
 cc_alt_vars_11 <= 0
 cc_alt_vars_4 <= 0
 cc_alt_vars_12 <= 0
 cc_alt_vars_23 <= 0
 cc_alt_vars_18 <= 0
 cc_alt_vars_10 <= 0
Scenario 309
Bounds
 cc_alt_vars_8 <= 0
 cc_alt_vars_15 <= 0
 cc_alt_vars_19 <= 0
 cc_alt_vars_2 <= 0
 cc_alt_vars_0 <= 0
 cc_alt_vars_6 <= 0
 cc_alt_vars_3 <= 0
 cc_alt_vars_13 <= 0
 cc_alt_vars_16 <= 0
 cc_alt_vars_21 <= 0
 cc_alt_vars_11 <= 0
 cc_alt_vars_4 <= 0
 cc_alt_vars_12 <= 0
 cc_alt_vars_23 <= 0
 cc_alt_vars_18 <= 0
 cc_alt_vars_10 <= 0
Scenario 310
Bounds
 cc_alt_vars_1 <= 0
 cc_alt_vars_8 <= 0
 cc_alt_vars_15 <= 0
 cc_alt_vars_19 <= 0
 cc_alt_vars_0 <= 0
 cc_alt_vars_6 <= 0
 cc_alt_vars_3 <= 0
 cc_alt_vars_13 <= 0
 cc_alt_vars_16 <= 0
 cc_alt_vars_21 <= 0
 cc_alt_vars_11 <= 0
 cc_alt_vars_4 <= 0
 cc_alt_vars_12 <= 0
 cc_alt_vars_23 <= 0
 cc_alt_vars_18 <= 0
 cc_alt_vars_10 <= 0
Scenario 311
Bounds
 cc_alt_vars_1 <= 0
 cc_alt_vars_7 <= 0
 cc_alt_vars_15 <= 0
 cc_alt_vars_19 <= 0
 cc_alt_vars_2 <= 0
 cc_alt_vars_6 <= 0
 cc_alt_vars_13 <= 0
 cc_alt_vars_16 <= 0
 cc_alt_vars_21 <= 0
 cc_alt_vars_11 <= 0
 cc_alt_vars_4 <= 0
 cc_alt_vars_12 <= 0
 cc_alt_vars_5 <= 0
 cc_alt_vars_23 <= 0
 cc_alt_vars_18 <= 0
 cc_alt_vars_10 <= 0
Scenario 312
Bounds
 cc_alt_vars_7 <= 0
 cc_alt_vars_15 <= 0
 cc_alt_vars_19 <= 0
 cc_alt_vars_2 <= 0
 cc_alt_vars_0 <= 0
 cc_alt_vars_6 <= 0
 cc_alt_vars_13 <= 0
 cc_alt_vars_16 <= 0
 cc_alt_vars_21 <= 0
 cc_alt_vars_11 <= 0
 cc_alt_vars_4 <= 0
 cc_alt_vars_12 <= 0
 cc_alt_vars_5 <= 0
 cc_alt_vars_23 <= 0
 cc_alt_vars_18 <= 0
 cc_alt_vars_10 <= 0
Scenario 313
Bounds
 cc_alt_vars_1 <= 0
 cc_alt_vars_7 <= 0
 cc_alt_vars_15 <= 0
 cc_alt_vars_19 <= 0
 cc_alt_vars_0 <= 0
 cc_alt_vars_6 <= 0
 cc_alt_vars_13 <= 0
 cc_alt_vars_16 <= 0
 cc_alt_vars_21 <= 0
 cc_alt_vars_11 <= 0
 cc_alt_vars_4 <= 0
 cc_alt_vars_12 <= 0
 cc_alt_vars_5 <= 0
 cc_alt_vars_23 <= 0
 cc_alt_vars_18 <= 0
 cc_alt_vars_10 <= 0
Scenario 314
Bounds
 cc_alt_vars_1 <= 0
 cc_alt_vars_7 <= 0
 cc_alt_vars_15 <= 0
 cc_alt_vars_19 <= 0
 cc_alt_vars_2 <= 0
 cc_alt_vars_6 <= 0
 cc_alt_vars_3 <= 0
 cc_alt_vars_13 <= 0
 cc_alt_vars_16 <= 0
 cc_alt_vars_21 <= 0
 cc_alt_vars_11 <= 0
 cc_alt_vars_12 <= 0
 cc_alt_vars_5 <= 0
 cc_alt_vars_23 <= 0
 cc_alt_vars_18 <= 0
 cc_alt_vars_10 <= 0
Scenario 315
Bounds
 cc_alt_vars_7 <= 0
 cc_alt_vars_15 <= 0
 cc_alt_vars_19 <= 0
 cc_alt_vars_2 <= 0
 cc_alt_vars_0 <= 0
 cc_alt_vars_6 <= 0
 cc_alt_vars_3 <= 0
 cc_alt_vars_13 <= 0
 cc_alt_vars_16 <= 0
 cc_alt_vars_21 <= 0
 cc_alt_vars_11 <= 0
 cc_alt_vars_12 <= 0
 cc_alt_vars_5 <= 0
 cc_alt_vars_23 <= 0
 cc_alt_vars_18 <= 0
 cc_alt_vars_10 <= 0
Scenario 316
Bounds
 cc_alt_vars_1 <= 0
 cc_alt_vars_7 <= 0
 cc_alt_vars_15 <= 0
 cc_alt_vars_19 <= 0
 cc_alt_vars_0 <= 0
 cc_alt_vars_6 <= 0
 cc_alt_vars_3 <= 0
 cc_alt_vars_13 <= 0
 cc_alt_vars_16 <= 0
 cc_alt_vars_21 <= 0
 cc_alt_vars_11 <= 0
 cc_alt_vars_12 <= 0
 cc_alt_vars_5 <= 0
 cc_alt_vars_23 <= 0
 cc_alt_vars_18 <= 0
 cc_alt_vars_10 <= 0
Scenario 317
Bounds
 cc_alt_vars_1 <= 0
 cc_alt_vars_7 <= 0
 cc_alt_vars_15 <= 0
 cc_alt_vars_19 <= 0
 cc_alt_vars_2 <= 0
 cc_alt_vars_6 <= 0
 cc_alt_vars_3 <= 0
 cc_alt_vars_13 <= 0
 cc_alt_vars_16 <= 0
 cc_alt_vars_21 <= 0
 cc_alt_vars_11 <= 0
 cc_alt_vars_4 <= 0
 cc_alt_vars_12 <= 0
 cc_alt_vars_23 <= 0
 cc_alt_vars_18 <= 0
 cc_alt_vars_10 <= 0
Scenario 318
Bounds
 cc_alt_vars_7 <= 0
 cc_alt_vars_15 <= 0
 cc_alt_vars_19 <= 0
 cc_alt_vars_2 <= 0
 cc_alt_vars_0 <= 0
 cc_alt_vars_6 <= 0
 cc_alt_vars_3 <= 0
 cc_alt_vars_13 <= 0
 cc_alt_vars_16 <= 0
 cc_alt_vars_21 <= 0
 cc_alt_vars_11 <= 0
 cc_alt_vars_4 <= 0
 cc_alt_vars_12 <= 0
 cc_alt_vars_23 <= 0
 cc_alt_vars_18 <= 0
 cc_alt_vars_10 <= 0
Scenario 319
Bounds
 cc_alt_vars_1 <= 0
 cc_alt_vars_7 <= 0
 cc_alt_vars_15 <= 0
 cc_alt_vars_19 <= 0
 cc_alt_vars_0 <= 0
 cc_alt_vars_6 <= 0
 cc_alt_vars_3 <= 0
 cc_alt_vars_13 <= 0
 cc_alt_vars_16 <= 0
 cc_alt_vars_21 <= 0
 cc_alt_vars_11 <= 0
 cc_alt_vars_4 <= 0
 cc_alt_vars_12 <= 0
 cc_alt_vars_23 <= 0
 cc_alt_vars_18 <= 0
 cc_alt_vars_10 <= 0
Scenario 320
Bounds
 cc_alt_vars_1 <= 0
 cc_alt_vars_9 <= 0
 cc_alt_vars_8 <= 0
 cc_alt_vars_7 <= 0
 cc_alt_vars_15 <= 0
 cc_alt_vars_19 <= 0
 cc_alt_vars_2 <= 0
 cc_alt_vars_13 <= 0
 cc_alt_vars_16 <= 0
 cc_alt_vars_21 <= 0
 cc_alt_vars_11 <= 0
 cc_alt_vars_4 <= 0
 cc_alt_vars_12 <= 0
 cc_alt_vars_5 <= 0
 cc_alt_vars_23 <= 0
 cc_alt_vars_18 <= 0
Scenario 321
Bounds
 cc_alt_vars_9 <= 0
 cc_alt_vars_8 <= 0
 cc_alt_vars_7 <= 0
 cc_alt_vars_15 <= 0
 cc_alt_vars_19 <= 0
 cc_alt_vars_2 <= 0
 cc_alt_vars_0 <= 0
 cc_alt_vars_13 <= 0
 cc_alt_vars_16 <= 0
 cc_alt_vars_21 <= 0
 cc_alt_vars_11 <= 0
 cc_alt_vars_4 <= 0
 cc_alt_vars_12 <= 0
 cc_alt_vars_5 <= 0
 cc_alt_vars_23 <= 0
 cc_alt_vars_18 <= 0
Scenario 322
Bounds
 cc_alt_vars_1 <= 0
 cc_alt_vars_9 <= 0
 cc_alt_vars_8 <= 0
 cc_alt_vars_7 <= 0
 cc_alt_vars_15 <= 0
 cc_alt_vars_19 <= 0
 cc_alt_vars_0 <= 0
 cc_alt_vars_13 <= 0
 cc_alt_vars_16 <= 0
 cc_alt_vars_21 <= 0
 cc_alt_vars_11 <= 0
 cc_alt_vars_4 <= 0
 cc_alt_vars_12 <= 0
 cc_alt_vars_5 <= 0
 cc_alt_vars_23 <= 0
 cc_alt_vars_18 <= 0
Scenario 323
Bounds
 cc_alt_vars_1 <= 0
 cc_alt_vars_9 <= 0
 cc_alt_vars_8 <= 0
 cc_alt_vars_7 <= 0
 cc_alt_vars_15 <= 0
 cc_alt_vars_19 <= 0
 cc_alt_vars_2 <= 0
 cc_alt_vars_3 <= 0
 cc_alt_vars_13 <= 0
 cc_alt_vars_16 <= 0
 cc_alt_vars_21 <= 0
 cc_alt_vars_11 <= 0
 cc_alt_vars_12 <= 0
 cc_alt_vars_5 <= 0
 cc_alt_vars_23 <= 0
 cc_alt_vars_18 <= 0
Scenario 324
Bounds
 cc_alt_vars_9 <= 0
 cc_alt_vars_8 <= 0
 cc_alt_vars_7 <= 0
 cc_alt_vars_15 <= 0
 cc_alt_vars_19 <= 0
 cc_alt_vars_2 <= 0
 cc_alt_vars_0 <= 0
 cc_alt_vars_3 <= 0
 cc_alt_vars_13 <= 0
 cc_alt_vars_16 <= 0
 cc_alt_vars_21 <= 0
 cc_alt_vars_11 <= 0
 cc_alt_vars_12 <= 0
 cc_alt_vars_5 <= 0
 cc_alt_vars_23 <= 0
 cc_alt_vars_18 <= 0
Scenario 325
Bounds
 cc_alt_vars_1 <= 0
 cc_alt_vars_9 <= 0
 cc_alt_vars_8 <= 0
 cc_alt_vars_7 <= 0
 cc_alt_vars_15 <= 0
 cc_alt_vars_19 <= 0
 cc_alt_vars_0 <= 0
 cc_alt_vars_3 <= 0
 cc_alt_vars_13 <= 0
 cc_alt_vars_16 <= 0
 cc_alt_vars_21 <= 0
 cc_alt_vars_11 <= 0
 cc_alt_vars_12 <= 0
 cc_alt_vars_5 <= 0
 cc_alt_vars_23 <= 0
 cc_alt_vars_18 <= 0
Scenario 326
Bounds
 cc_alt_vars_1 <= 0
 cc_alt_vars_9 <= 0
 cc_alt_vars_8 <= 0
 cc_alt_vars_7 <= 0
 cc_alt_vars_15 <= 0
 cc_alt_vars_19 <= 0
 cc_alt_vars_2 <= 0
 cc_alt_vars_3 <= 0
 cc_alt_vars_13 <= 0
 cc_alt_vars_16 <= 0
 cc_alt_vars_21 <= 0
 cc_alt_vars_11 <= 0
 cc_alt_vars_4 <= 0
 cc_alt_vars_12 <= 0
 cc_alt_vars_23 <= 0
 cc_alt_vars_18 <= 0
Scenario 327
Bounds
 cc_alt_vars_9 <= 0
 cc_alt_vars_8 <= 0
 cc_alt_vars_7 <= 0
 cc_alt_vars_15 <= 0
 cc_alt_vars_19 <= 0
 cc_alt_vars_2 <= 0
 cc_alt_vars_0 <= 0
 cc_alt_vars_3 <= 0
 cc_alt_vars_13 <= 0
 cc_alt_vars_16 <= 0
 cc_alt_vars_21 <= 0
 cc_alt_vars_11 <= 0
 cc_alt_vars_4 <= 0
 cc_alt_vars_12 <= 0
 cc_alt_vars_23 <= 0
 cc_alt_vars_18 <= 0
Scenario 328
Bounds
 cc_alt_vars_1 <= 0
 cc_alt_vars_9 <= 0
 cc_alt_vars_8 <= 0
 cc_alt_vars_7 <= 0
 cc_alt_vars_15 <= 0
 cc_alt_vars_19 <= 0
 cc_alt_vars_0 <= 0
 cc_alt_vars_3 <= 0
 cc_alt_vars_13 <= 0
 cc_alt_vars_16 <= 0
 cc_alt_vars_21 <= 0
 cc_alt_vars_11 <= 0
 cc_alt_vars_4 <= 0
 cc_alt_vars_12 <= 0
 cc_alt_vars_23 <= 0
 cc_alt_vars_18 <= 0
Scenario 329
Bounds
 cc_alt_vars_1 <= 0
 cc_alt_vars_9 <= 0
 cc_alt_vars_8 <= 0
 cc_alt_vars_15 <= 0
 cc_alt_vars_19 <= 0
 cc_alt_vars_2 <= 0
 cc_alt_vars_6 <= 0
 cc_alt_vars_13 <= 0
 cc_alt_vars_16 <= 0
 cc_alt_vars_21 <= 0
 cc_alt_vars_11 <= 0
 cc_alt_vars_4 <= 0
 cc_alt_vars_12 <= 0
 cc_alt_vars_5 <= 0
 cc_alt_vars_23 <= 0
 cc_alt_vars_18 <= 0
Scenario 330
Bounds
 cc_alt_vars_9 <= 0
 cc_alt_vars_8 <= 0
 cc_alt_vars_15 <= 0
 cc_alt_vars_19 <= 0
 cc_alt_vars_2 <= 0
 cc_alt_vars_0 <= 0
 cc_alt_vars_6 <= 0
 cc_alt_vars_13 <= 0
 cc_alt_vars_16 <= 0
 cc_alt_vars_21 <= 0
 cc_alt_vars_11 <= 0
 cc_alt_vars_4 <= 0
 cc_alt_vars_12 <= 0
 cc_alt_vars_5 <= 0
 cc_alt_vars_23 <= 0
 cc_alt_vars_18 <= 0
Scenario 331
Bounds
 cc_alt_vars_1 <= 0
 cc_alt_vars_9 <= 0
 cc_alt_vars_8 <= 0
 cc_alt_vars_15 <= 0
 cc_alt_vars_19 <= 0
 cc_alt_vars_0 <= 0
 cc_alt_vars_6 <= 0
 cc_alt_vars_13 <= 0
 cc_alt_vars_16 <= 0
 cc_alt_vars_21 <= 0
 cc_alt_vars_11 <= 0
 cc_alt_vars_4 <= 0
 cc_alt_vars_12 <= 0
 cc_alt_vars_5 <= 0
 cc_alt_vars_23 <= 0
 cc_alt_vars_18 <= 0
Scenario 332
Bounds
 cc_alt_vars_1 <= 0
 cc_alt_vars_9 <= 0
 cc_alt_vars_8 <= 0
 cc_alt_vars_15 <= 0
 cc_alt_vars_19 <= 0
 cc_alt_vars_2 <= 0
 cc_alt_vars_6 <= 0
 cc_alt_vars_3 <= 0
 cc_alt_vars_13 <= 0
 cc_alt_vars_16 <= 0
 cc_alt_vars_21 <= 0
 cc_alt_vars_11 <= 0
 cc_alt_vars_12 <= 0
 cc_alt_vars_5 <= 0
 cc_alt_vars_23 <= 0
 cc_alt_vars_18 <= 0
Scenario 333
Bounds
 cc_alt_vars_9 <= 0
 cc_alt_vars_8 <= 0
 cc_alt_vars_15 <= 0
 cc_alt_vars_19 <= 0
 cc_alt_vars_2 <= 0
 cc_alt_vars_0 <= 0
 cc_alt_vars_6 <= 0
 cc_alt_vars_3 <= 0
 cc_alt_vars_13 <= 0
 cc_alt_vars_16 <= 0
 cc_alt_vars_21 <= 0
 cc_alt_vars_11 <= 0
 cc_alt_vars_12 <= 0
 cc_alt_vars_5 <= 0
 cc_alt_vars_23 <= 0
 cc_alt_vars_18 <= 0
Scenario 334
Bounds
 cc_alt_vars_1 <= 0
 cc_alt_vars_9 <= 0
 cc_alt_vars_8 <= 0
 cc_alt_vars_15 <= 0
 cc_alt_vars_19 <= 0
 cc_alt_vars_0 <= 0
 cc_alt_vars_6 <= 0
 cc_alt_vars_3 <= 0
 cc_alt_vars_13 <= 0
 cc_alt_vars_16 <= 0
 cc_alt_vars_21 <= 0
 cc_alt_vars_11 <= 0
 cc_alt_vars_12 <= 0
 cc_alt_vars_5 <= 0
 cc_alt_vars_23 <= 0
 cc_alt_vars_18 <= 0
Scenario 335
Bounds
 cc_alt_vars_1 <= 0
 cc_alt_vars_9 <= 0
 cc_alt_vars_8 <= 0
 cc_alt_vars_15 <= 0
 cc_alt_vars_19 <= 0
 cc_alt_vars_2 <= 0
 cc_alt_vars_6 <= 0
 cc_alt_vars_3 <= 0
 cc_alt_vars_13 <= 0
 cc_alt_vars_16 <= 0
 cc_alt_vars_21 <= 0
 cc_alt_vars_11 <= 0
 cc_alt_vars_4 <= 0
 cc_alt_vars_12 <= 0
 cc_alt_vars_23 <= 0
 cc_alt_vars_18 <= 0
Scenario 336
Bounds
 cc_alt_vars_9 <= 0
 cc_alt_vars_8 <= 0
 cc_alt_vars_15 <= 0
 cc_alt_vars_19 <= 0
 cc_alt_vars_2 <= 0
 cc_alt_vars_0 <= 0
 cc_alt_vars_6 <= 0
 cc_alt_vars_3 <= 0
 cc_alt_vars_13 <= 0
 cc_alt_vars_16 <= 0
 cc_alt_vars_21 <= 0
 cc_alt_vars_11 <= 0
 cc_alt_vars_4 <= 0
 cc_alt_vars_12 <= 0
 cc_alt_vars_23 <= 0
 cc_alt_vars_18 <= 0
Scenario 337
Bounds
 cc_alt_vars_1 <= 0
 cc_alt_vars_9 <= 0
 cc_alt_vars_8 <= 0
 cc_alt_vars_15 <= 0
 cc_alt_vars_19 <= 0
 cc_alt_vars_0 <= 0
 cc_alt_vars_6 <= 0
 cc_alt_vars_3 <= 0
 cc_alt_vars_13 <= 0
 cc_alt_vars_16 <= 0
 cc_alt_vars_21 <= 0
 cc_alt_vars_11 <= 0
 cc_alt_vars_4 <= 0
 cc_alt_vars_12 <= 0
 cc_alt_vars_23 <= 0
 cc_alt_vars_18 <= 0
Scenario 338
Bounds
 cc_alt_vars_1 <= 0
 cc_alt_vars_9 <= 0
 cc_alt_vars_7 <= 0
 cc_alt_vars_15 <= 0
 cc_alt_vars_19 <= 0
 cc_alt_vars_2 <= 0
 cc_alt_vars_6 <= 0
 cc_alt_vars_13 <= 0
 cc_alt_vars_16 <= 0
 cc_alt_vars_21 <= 0
 cc_alt_vars_11 <= 0
 cc_alt_vars_4 <= 0
 cc_alt_vars_12 <= 0
 cc_alt_vars_5 <= 0
 cc_alt_vars_23 <= 0
 cc_alt_vars_18 <= 0
Scenario 339
Bounds
 cc_alt_vars_9 <= 0
 cc_alt_vars_7 <= 0
 cc_alt_vars_15 <= 0
 cc_alt_vars_19 <= 0
 cc_alt_vars_2 <= 0
 cc_alt_vars_0 <= 0
 cc_alt_vars_6 <= 0
 cc_alt_vars_13 <= 0
 cc_alt_vars_16 <= 0
 cc_alt_vars_21 <= 0
 cc_alt_vars_11 <= 0
 cc_alt_vars_4 <= 0
 cc_alt_vars_12 <= 0
 cc_alt_vars_5 <= 0
 cc_alt_vars_23 <= 0
 cc_alt_vars_18 <= 0
Scenario 340
Bounds
 cc_alt_vars_1 <= 0
 cc_alt_vars_9 <= 0
 cc_alt_vars_7 <= 0
 cc_alt_vars_15 <= 0
 cc_alt_vars_19 <= 0
 cc_alt_vars_0 <= 0
 cc_alt_vars_6 <= 0
 cc_alt_vars_13 <= 0
 cc_alt_vars_16 <= 0
 cc_alt_vars_21 <= 0
 cc_alt_vars_11 <= 0
 cc_alt_vars_4 <= 0
 cc_alt_vars_12 <= 0
 cc_alt_vars_5 <= 0
 cc_alt_vars_23 <= 0
 cc_alt_vars_18 <= 0
Scenario 341
Bounds
 cc_alt_vars_1 <= 0
 cc_alt_vars_9 <= 0
 cc_alt_vars_7 <= 0
 cc_alt_vars_15 <= 0
 cc_alt_vars_19 <= 0
 cc_alt_vars_2 <= 0
 cc_alt_vars_6 <= 0
 cc_alt_vars_3 <= 0
 cc_alt_vars_13 <= 0
 cc_alt_vars_16 <= 0
 cc_alt_vars_21 <= 0
 cc_alt_vars_11 <= 0
 cc_alt_vars_12 <= 0
 cc_alt_vars_5 <= 0
 cc_alt_vars_23 <= 0
 cc_alt_vars_18 <= 0
Scenario 342
Bounds
 cc_alt_vars_9 <= 0
 cc_alt_vars_7 <= 0
 cc_alt_vars_15 <= 0
 cc_alt_vars_19 <= 0
 cc_alt_vars_2 <= 0
 cc_alt_vars_0 <= 0
 cc_alt_vars_6 <= 0
 cc_alt_vars_3 <= 0
 cc_alt_vars_13 <= 0
 cc_alt_vars_16 <= 0
 cc_alt_vars_21 <= 0
 cc_alt_vars_11 <= 0
 cc_alt_vars_12 <= 0
 cc_alt_vars_5 <= 0
 cc_alt_vars_23 <= 0
 cc_alt_vars_18 <= 0
Scenario 343
Bounds
 cc_alt_vars_1 <= 0
 cc_alt_vars_9 <= 0
 cc_alt_vars_7 <= 0
 cc_alt_vars_15 <= 0
 cc_alt_vars_19 <= 0
 cc_alt_vars_0 <= 0
 cc_alt_vars_6 <= 0
 cc_alt_vars_3 <= 0
 cc_alt_vars_13 <= 0
 cc_alt_vars_16 <= 0
 cc_alt_vars_21 <= 0
 cc_alt_vars_11 <= 0
 cc_alt_vars_12 <= 0
 cc_alt_vars_5 <= 0
 cc_alt_vars_23 <= 0
 cc_alt_vars_18 <= 0
Scenario 344
Bounds
 cc_alt_vars_1 <= 0
 cc_alt_vars_9 <= 0
 cc_alt_vars_7 <= 0
 cc_alt_vars_15 <= 0
 cc_alt_vars_19 <= 0
 cc_alt_vars_2 <= 0
 cc_alt_vars_6 <= 0
 cc_alt_vars_3 <= 0
 cc_alt_vars_13 <= 0
 cc_alt_vars_16 <= 0
 cc_alt_vars_21 <= 0
 cc_alt_vars_11 <= 0
 cc_alt_vars_4 <= 0
 cc_alt_vars_12 <= 0
 cc_alt_vars_23 <= 0
 cc_alt_vars_18 <= 0
Scenario 345
Bounds
 cc_alt_vars_9 <= 0
 cc_alt_vars_7 <= 0
 cc_alt_vars_15 <= 0
 cc_alt_vars_19 <= 0
 cc_alt_vars_2 <= 0
 cc_alt_vars_0 <= 0
 cc_alt_vars_6 <= 0
 cc_alt_vars_3 <= 0
 cc_alt_vars_13 <= 0
 cc_alt_vars_16 <= 0
 cc_alt_vars_21 <= 0
 cc_alt_vars_11 <= 0
 cc_alt_vars_4 <= 0
 cc_alt_vars_12 <= 0
 cc_alt_vars_23 <= 0
 cc_alt_vars_18 <= 0
Scenario 346
Bounds
 cc_alt_vars_1 <= 0
 cc_alt_vars_9 <= 0
 cc_alt_vars_7 <= 0
 cc_alt_vars_15 <= 0
 cc_alt_vars_19 <= 0
 cc_alt_vars_0 <= 0
 cc_alt_vars_6 <= 0
 cc_alt_vars_3 <= 0
 cc_alt_vars_13 <= 0
 cc_alt_vars_16 <= 0
 cc_alt_vars_21 <= 0
 cc_alt_vars_11 <= 0
 cc_alt_vars_4 <= 0
 cc_alt_vars_12 <= 0
 cc_alt_vars_23 <= 0
 cc_alt_vars_18 <= 0
Scenario 347
Bounds
 cc_alt_vars_1 <= 0
 cc_alt_vars_9 <= 0
 cc_alt_vars_8 <= 0
 cc_alt_vars_7 <= 0
 cc_alt_vars_15 <= 0
 cc_alt_vars_19 <= 0
 cc_alt_vars_2 <= 0
 cc_alt_vars_13 <= 0
 cc_alt_vars_16 <= 0
 cc_alt_vars_21 <= 0
 cc_alt_vars_4 <= 0
 cc_alt_vars_12 <= 0
 cc_alt_vars_5 <= 0
 cc_alt_vars_23 <= 0
 cc_alt_vars_18 <= 0
 cc_alt_vars_10 <= 0
Scenario 348
Bounds
 cc_alt_vars_9 <= 0
 cc_alt_vars_8 <= 0
 cc_alt_vars_7 <= 0
 cc_alt_vars_15 <= 0
 cc_alt_vars_19 <= 0
 cc_alt_vars_2 <= 0
 cc_alt_vars_0 <= 0
 cc_alt_vars_13 <= 0
 cc_alt_vars_16 <= 0
 cc_alt_vars_21 <= 0
 cc_alt_vars_4 <= 0
 cc_alt_vars_12 <= 0
 cc_alt_vars_5 <= 0
 cc_alt_vars_23 <= 0
 cc_alt_vars_18 <= 0
 cc_alt_vars_10 <= 0
Scenario 349
Bounds
 cc_alt_vars_1 <= 0
 cc_alt_vars_9 <= 0
 cc_alt_vars_8 <= 0
 cc_alt_vars_7 <= 0
 cc_alt_vars_15 <= 0
 cc_alt_vars_19 <= 0
 cc_alt_vars_0 <= 0
 cc_alt_vars_13 <= 0
 cc_alt_vars_16 <= 0
 cc_alt_vars_21 <= 0
 cc_alt_vars_4 <= 0
 cc_alt_vars_12 <= 0
 cc_alt_vars_5 <= 0
 cc_alt_vars_23 <= 0
 cc_alt_vars_18 <= 0
 cc_alt_vars_10 <= 0
Scenario 350
Bounds
 cc_alt_vars_1 <= 0
 cc_alt_vars_9 <= 0
 cc_alt_vars_8 <= 0
 cc_alt_vars_7 <= 0
 cc_alt_vars_15 <= 0
 cc_alt_vars_19 <= 0
 cc_alt_vars_2 <= 0
 cc_alt_vars_3 <= 0
 cc_alt_vars_13 <= 0
 cc_alt_vars_16 <= 0
 cc_alt_vars_21 <= 0
 cc_alt_vars_12 <= 0
 cc_alt_vars_5 <= 0
 cc_alt_vars_23 <= 0
 cc_alt_vars_18 <= 0
 cc_alt_vars_10 <= 0
Scenario 351
Bounds
 cc_alt_vars_9 <= 0
 cc_alt_vars_8 <= 0
 cc_alt_vars_7 <= 0
 cc_alt_vars_15 <= 0
 cc_alt_vars_19 <= 0
 cc_alt_vars_2 <= 0
 cc_alt_vars_0 <= 0
 cc_alt_vars_3 <= 0
 cc_alt_vars_13 <= 0
 cc_alt_vars_16 <= 0
 cc_alt_vars_21 <= 0
 cc_alt_vars_12 <= 0
 cc_alt_vars_5 <= 0
 cc_alt_vars_23 <= 0
 cc_alt_vars_18 <= 0
 cc_alt_vars_10 <= 0
Scenario 352
Bounds
 cc_alt_vars_1 <= 0
 cc_alt_vars_9 <= 0
 cc_alt_vars_8 <= 0
 cc_alt_vars_7 <= 0
 cc_alt_vars_15 <= 0
 cc_alt_vars_19 <= 0
 cc_alt_vars_0 <= 0
 cc_alt_vars_3 <= 0
 cc_alt_vars_13 <= 0
 cc_alt_vars_16 <= 0
 cc_alt_vars_21 <= 0
 cc_alt_vars_12 <= 0
 cc_alt_vars_5 <= 0
 cc_alt_vars_23 <= 0
 cc_alt_vars_18 <= 0
 cc_alt_vars_10 <= 0
Scenario 353
Bounds
 cc_alt_vars_1 <= 0
 cc_alt_vars_9 <= 0
 cc_alt_vars_8 <= 0
 cc_alt_vars_7 <= 0
 cc_alt_vars_15 <= 0
 cc_alt_vars_19 <= 0
 cc_alt_vars_2 <= 0
 cc_alt_vars_3 <= 0
 cc_alt_vars_13 <= 0
 cc_alt_vars_16 <= 0
 cc_alt_vars_21 <= 0
 cc_alt_vars_4 <= 0
 cc_alt_vars_12 <= 0
 cc_alt_vars_23 <= 0
 cc_alt_vars_18 <= 0
 cc_alt_vars_10 <= 0
Scenario 354
Bounds
 cc_alt_vars_9 <= 0
 cc_alt_vars_8 <= 0
 cc_alt_vars_7 <= 0
 cc_alt_vars_15 <= 0
 cc_alt_vars_19 <= 0
 cc_alt_vars_2 <= 0
 cc_alt_vars_0 <= 0
 cc_alt_vars_3 <= 0
 cc_alt_vars_13 <= 0
 cc_alt_vars_16 <= 0
 cc_alt_vars_21 <= 0
 cc_alt_vars_4 <= 0
 cc_alt_vars_12 <= 0
 cc_alt_vars_23 <= 0
 cc_alt_vars_18 <= 0
 cc_alt_vars_10 <= 0
Scenario 355
Bounds
 cc_alt_vars_1 <= 0
 cc_alt_vars_9 <= 0
 cc_alt_vars_8 <= 0
 cc_alt_vars_7 <= 0
 cc_alt_vars_15 <= 0
 cc_alt_vars_19 <= 0
 cc_alt_vars_0 <= 0
 cc_alt_vars_3 <= 0
 cc_alt_vars_13 <= 0
 cc_alt_vars_16 <= 0
 cc_alt_vars_21 <= 0
 cc_alt_vars_4 <= 0
 cc_alt_vars_12 <= 0
 cc_alt_vars_23 <= 0
 cc_alt_vars_18 <= 0
 cc_alt_vars_10 <= 0
Scenario 356
Bounds
 cc_alt_vars_1 <= 0
 cc_alt_vars_9 <= 0
 cc_alt_vars_8 <= 0
 cc_alt_vars_15 <= 0
 cc_alt_vars_19 <= 0
 cc_alt_vars_2 <= 0
 cc_alt_vars_6 <= 0
 cc_alt_vars_13 <= 0
 cc_alt_vars_16 <= 0
 cc_alt_vars_21 <= 0
 cc_alt_vars_4 <= 0
 cc_alt_vars_12 <= 0
 cc_alt_vars_5 <= 0
 cc_alt_vars_23 <= 0
 cc_alt_vars_18 <= 0
 cc_alt_vars_10 <= 0
Scenario 357
Bounds
 cc_alt_vars_9 <= 0
 cc_alt_vars_8 <= 0
 cc_alt_vars_15 <= 0
 cc_alt_vars_19 <= 0
 cc_alt_vars_2 <= 0
 cc_alt_vars_0 <= 0
 cc_alt_vars_6 <= 0
 cc_alt_vars_13 <= 0
 cc_alt_vars_16 <= 0
 cc_alt_vars_21 <= 0
 cc_alt_vars_4 <= 0
 cc_alt_vars_12 <= 0
 cc_alt_vars_5 <= 0
 cc_alt_vars_23 <= 0
 cc_alt_vars_18 <= 0
 cc_alt_vars_10 <= 0
Scenario 358
Bounds
 cc_alt_vars_1 <= 0
 cc_alt_vars_9 <= 0
 cc_alt_vars_8 <= 0
 cc_alt_vars_15 <= 0
 cc_alt_vars_19 <= 0
 cc_alt_vars_0 <= 0
 cc_alt_vars_6 <= 0
 cc_alt_vars_13 <= 0
 cc_alt_vars_16 <= 0
 cc_alt_vars_21 <= 0
 cc_alt_vars_4 <= 0
 cc_alt_vars_12 <= 0
 cc_alt_vars_5 <= 0
 cc_alt_vars_23 <= 0
 cc_alt_vars_18 <= 0
 cc_alt_vars_10 <= 0
Scenario 359
Bounds
 cc_alt_vars_1 <= 0
 cc_alt_vars_9 <= 0
 cc_alt_vars_8 <= 0
 cc_alt_vars_15 <= 0
 cc_alt_vars_19 <= 0
 cc_alt_vars_2 <= 0
 cc_alt_vars_6 <= 0
 cc_alt_vars_3 <= 0
 cc_alt_vars_13 <= 0
 cc_alt_vars_16 <= 0
 cc_alt_vars_21 <= 0
 cc_alt_vars_12 <= 0
 cc_alt_vars_5 <= 0
 cc_alt_vars_23 <= 0
 cc_alt_vars_18 <= 0
 cc_alt_vars_10 <= 0
Scenario 360
Bounds
 cc_alt_vars_9 <= 0
 cc_alt_vars_8 <= 0
 cc_alt_vars_15 <= 0
 cc_alt_vars_19 <= 0
 cc_alt_vars_2 <= 0
 cc_alt_vars_0 <= 0
 cc_alt_vars_6 <= 0
 cc_alt_vars_3 <= 0
 cc_alt_vars_13 <= 0
 cc_alt_vars_16 <= 0
 cc_alt_vars_21 <= 0
 cc_alt_vars_12 <= 0
 cc_alt_vars_5 <= 0
 cc_alt_vars_23 <= 0
 cc_alt_vars_18 <= 0
 cc_alt_vars_10 <= 0
Scenario 361
Bounds
 cc_alt_vars_1 <= 0
 cc_alt_vars_9 <= 0
 cc_alt_vars_8 <= 0
 cc_alt_vars_15 <= 0
 cc_alt_vars_19 <= 0
 cc_alt_vars_0 <= 0
 cc_alt_vars_6 <= 0
 cc_alt_vars_3 <= 0
 cc_alt_vars_13 <= 0
 cc_alt_vars_16 <= 0
 cc_alt_vars_21 <= 0
 cc_alt_vars_12 <= 0
 cc_alt_vars_5 <= 0
 cc_alt_vars_23 <= 0
 cc_alt_vars_18 <= 0
 cc_alt_vars_10 <= 0
Scenario 362
Bounds
 cc_alt_vars_1 <= 0
 cc_alt_vars_9 <= 0
 cc_alt_vars_8 <= 0
 cc_alt_vars_15 <= 0
 cc_alt_vars_19 <= 0
 cc_alt_vars_2 <= 0
 cc_alt_vars_6 <= 0
 cc_alt_vars_3 <= 0
 cc_alt_vars_13 <= 0
 cc_alt_vars_16 <= 0
 cc_alt_vars_21 <= 0
 cc_alt_vars_4 <= 0
 cc_alt_vars_12 <= 0
 cc_alt_vars_23 <= 0
 cc_alt_vars_18 <= 0
 cc_alt_vars_10 <= 0
Scenario 363
Bounds
 cc_alt_vars_9 <= 0
 cc_alt_vars_8 <= 0
 cc_alt_vars_15 <= 0
 cc_alt_vars_19 <= 0
 cc_alt_vars_2 <= 0
 cc_alt_vars_0 <= 0
 cc_alt_vars_6 <= 0
 cc_alt_vars_3 <= 0
 cc_alt_vars_13 <= 0
 cc_alt_vars_16 <= 0
 cc_alt_vars_21 <= 0
 cc_alt_vars_4 <= 0
 cc_alt_vars_12 <= 0
 cc_alt_vars_23 <= 0
 cc_alt_vars_18 <= 0
 cc_alt_vars_10 <= 0
Scenario 364
Bounds
 cc_alt_vars_1 <= 0
 cc_alt_vars_9 <= 0
 cc_alt_vars_8 <= 0
 cc_alt_vars_15 <= 0
 cc_alt_vars_19 <= 0
 cc_alt_vars_0 <= 0
 cc_alt_vars_6 <= 0
 cc_alt_vars_3 <= 0
 cc_alt_vars_13 <= 0
 cc_alt_vars_16 <= 0
 cc_alt_vars_21 <= 0
 cc_alt_vars_4 <= 0
 cc_alt_vars_12 <= 0
 cc_alt_vars_23 <= 0
 cc_alt_vars_18 <= 0
 cc_alt_vars_10 <= 0
Scenario 365
Bounds
 cc_alt_vars_1 <= 0
 cc_alt_vars_9 <= 0
 cc_alt_vars_7 <= 0
 cc_alt_vars_15 <= 0
 cc_alt_vars_19 <= 0
 cc_alt_vars_2 <= 0
 cc_alt_vars_6 <= 0
 cc_alt_vars_13 <= 0
 cc_alt_vars_16 <= 0
 cc_alt_vars_21 <= 0
 cc_alt_vars_4 <= 0
 cc_alt_vars_12 <= 0
 cc_alt_vars_5 <= 0
 cc_alt_vars_23 <= 0
 cc_alt_vars_18 <= 0
 cc_alt_vars_10 <= 0
Scenario 366
Bounds
 cc_alt_vars_9 <= 0
 cc_alt_vars_7 <= 0
 cc_alt_vars_15 <= 0
 cc_alt_vars_19 <= 0
 cc_alt_vars_2 <= 0
 cc_alt_vars_0 <= 0
 cc_alt_vars_6 <= 0
 cc_alt_vars_13 <= 0
 cc_alt_vars_16 <= 0
 cc_alt_vars_21 <= 0
 cc_alt_vars_4 <= 0
 cc_alt_vars_12 <= 0
 cc_alt_vars_5 <= 0
 cc_alt_vars_23 <= 0
 cc_alt_vars_18 <= 0
 cc_alt_vars_10 <= 0
Scenario 367
Bounds
 cc_alt_vars_1 <= 0
 cc_alt_vars_9 <= 0
 cc_alt_vars_7 <= 0
 cc_alt_vars_15 <= 0
 cc_alt_vars_19 <= 0
 cc_alt_vars_0 <= 0
 cc_alt_vars_6 <= 0
 cc_alt_vars_13 <= 0
 cc_alt_vars_16 <= 0
 cc_alt_vars_21 <= 0
 cc_alt_vars_4 <= 0
 cc_alt_vars_12 <= 0
 cc_alt_vars_5 <= 0
 cc_alt_vars_23 <= 0
 cc_alt_vars_18 <= 0
 cc_alt_vars_10 <= 0
Scenario 368
Bounds
 cc_alt_vars_1 <= 0
 cc_alt_vars_9 <= 0
 cc_alt_vars_7 <= 0
 cc_alt_vars_15 <= 0
 cc_alt_vars_19 <= 0
 cc_alt_vars_2 <= 0
 cc_alt_vars_6 <= 0
 cc_alt_vars_3 <= 0
 cc_alt_vars_13 <= 0
 cc_alt_vars_16 <= 0
 cc_alt_vars_21 <= 0
 cc_alt_vars_12 <= 0
 cc_alt_vars_5 <= 0
 cc_alt_vars_23 <= 0
 cc_alt_vars_18 <= 0
 cc_alt_vars_10 <= 0
Scenario 369
Bounds
 cc_alt_vars_9 <= 0
 cc_alt_vars_7 <= 0
 cc_alt_vars_15 <= 0
 cc_alt_vars_19 <= 0
 cc_alt_vars_2 <= 0
 cc_alt_vars_0 <= 0
 cc_alt_vars_6 <= 0
 cc_alt_vars_3 <= 0
 cc_alt_vars_13 <= 0
 cc_alt_vars_16 <= 0
 cc_alt_vars_21 <= 0
 cc_alt_vars_12 <= 0
 cc_alt_vars_5 <= 0
 cc_alt_vars_23 <= 0
 cc_alt_vars_18 <= 0
 cc_alt_vars_10 <= 0
Scenario 370
Bounds
 cc_alt_vars_1 <= 0
 cc_alt_vars_9 <= 0
 cc_alt_vars_7 <= 0
 cc_alt_vars_15 <= 0
 cc_alt_vars_19 <= 0
 cc_alt_vars_0 <= 0
 cc_alt_vars_6 <= 0
 cc_alt_vars_3 <= 0
 cc_alt_vars_13 <= 0
 cc_alt_vars_16 <= 0
 cc_alt_vars_21 <= 0
 cc_alt_vars_12 <= 0
 cc_alt_vars_5 <= 0
 cc_alt_vars_23 <= 0
 cc_alt_vars_18 <= 0
 cc_alt_vars_10 <= 0
Scenario 371
Bounds
 cc_alt_vars_1 <= 0
 cc_alt_vars_9 <= 0
 cc_alt_vars_7 <= 0
 cc_alt_vars_15 <= 0
 cc_alt_vars_19 <= 0
 cc_alt_vars_2 <= 0
 cc_alt_vars_6 <= 0
 cc_alt_vars_3 <= 0
 cc_alt_vars_13 <= 0
 cc_alt_vars_16 <= 0
 cc_alt_vars_21 <= 0
 cc_alt_vars_4 <= 0
 cc_alt_vars_12 <= 0
 cc_alt_vars_23 <= 0
 cc_alt_vars_18 <= 0
 cc_alt_vars_10 <= 0
Scenario 372
Bounds
 cc_alt_vars_9 <= 0
 cc_alt_vars_7 <= 0
 cc_alt_vars_15 <= 0
 cc_alt_vars_19 <= 0
 cc_alt_vars_2 <= 0
 cc_alt_vars_0 <= 0
 cc_alt_vars_6 <= 0
 cc_alt_vars_3 <= 0
 cc_alt_vars_13 <= 0
 cc_alt_vars_16 <= 0
 cc_alt_vars_21 <= 0
 cc_alt_vars_4 <= 0
 cc_alt_vars_12 <= 0
 cc_alt_vars_23 <= 0
 cc_alt_vars_18 <= 0
 cc_alt_vars_10 <= 0
Scenario 373
Bounds
 cc_alt_vars_1 <= 0
 cc_alt_vars_9 <= 0
 cc_alt_vars_7 <= 0
 cc_alt_vars_15 <= 0
 cc_alt_vars_19 <= 0
 cc_alt_vars_0 <= 0
 cc_alt_vars_6 <= 0
 cc_alt_vars_3 <= 0
 cc_alt_vars_13 <= 0
 cc_alt_vars_16 <= 0
 cc_alt_vars_21 <= 0
 cc_alt_vars_4 <= 0
 cc_alt_vars_12 <= 0
 cc_alt_vars_23 <= 0
 cc_alt_vars_18 <= 0
 cc_alt_vars_10 <= 0
Scenario 374
Bounds
 cc_alt_vars_1 <= 0
 cc_alt_vars_22 <= 0
 cc_alt_vars_20 <= 0
 cc_alt_vars_8 <= 0
 cc_alt_vars_7 <= 0
 cc_alt_vars_19 <= 0
 cc_alt_vars_2 <= 0
 cc_alt_vars_13 <= 0
 cc_alt_vars_14 <= 0
 cc_alt_vars_16 <= 0
 cc_alt_vars_21 <= 0
 cc_alt_vars_11 <= 0
 cc_alt_vars_4 <= 0
 cc_alt_vars_5 <= 0
 cc_alt_vars_10 <= 0
 cc_alt_vars_17 <= 0
Scenario 375
Bounds
 cc_alt_vars_22 <= 0
 cc_alt_vars_20 <= 0
 cc_alt_vars_8 <= 0
 cc_alt_vars_7 <= 0
 cc_alt_vars_19 <= 0
 cc_alt_vars_2 <= 0
 cc_alt_vars_0 <= 0
 cc_alt_vars_13 <= 0
 cc_alt_vars_14 <= 0
 cc_alt_vars_16 <= 0
 cc_alt_vars_21 <= 0
 cc_alt_vars_11 <= 0
 cc_alt_vars_4 <= 0
 cc_alt_vars_5 <= 0
 cc_alt_vars_10 <= 0
 cc_alt_vars_17 <= 0
Scenario 376
Bounds
 cc_alt_vars_1 <= 0
 cc_alt_vars_22 <= 0
 cc_alt_vars_20 <= 0
 cc_alt_vars_8 <= 0
 cc_alt_vars_7 <= 0
 cc_alt_vars_19 <= 0
 cc_alt_vars_0 <= 0
 cc_alt_vars_13 <= 0
 cc_alt_vars_14 <= 0
 cc_alt_vars_16 <= 0
 cc_alt_vars_21 <= 0
 cc_alt_vars_11 <= 0
 cc_alt_vars_4 <= 0
 cc_alt_vars_5 <= 0
 cc_alt_vars_10 <= 0
 cc_alt_vars_17 <= 0
Scenario 377
Bounds
 cc_alt_vars_1 <= 0
 cc_alt_vars_22 <= 0
 cc_alt_vars_20 <= 0
 cc_alt_vars_8 <= 0
 cc_alt_vars_7 <= 0
 cc_alt_vars_19 <= 0
 cc_alt_vars_2 <= 0
 cc_alt_vars_3 <= 0
 cc_alt_vars_13 <= 0
 cc_alt_vars_14 <= 0
 cc_alt_vars_16 <= 0
 cc_alt_vars_21 <= 0
 cc_alt_vars_11 <= 0
 cc_alt_vars_5 <= 0
 cc_alt_vars_10 <= 0
 cc_alt_vars_17 <= 0
Scenario 378
Bounds
 cc_alt_vars_22 <= 0
 cc_alt_vars_20 <= 0
 cc_alt_vars_8 <= 0
 cc_alt_vars_7 <= 0
 cc_alt_vars_19 <= 0
 cc_alt_vars_2 <= 0
 cc_alt_vars_0 <= 0
 cc_alt_vars_3 <= 0
 cc_alt_vars_13 <= 0
 cc_alt_vars_14 <= 0
 cc_alt_vars_16 <= 0
 cc_alt_vars_21 <= 0
 cc_alt_vars_11 <= 0
 cc_alt_vars_5 <= 0
 cc_alt_vars_10 <= 0
 cc_alt_vars_17 <= 0
Scenario 379
Bounds
 cc_alt_vars_1 <= 0
 cc_alt_vars_22 <= 0
 cc_alt_vars_20 <= 0
 cc_alt_vars_8 <= 0
 cc_alt_vars_7 <= 0
 cc_alt_vars_19 <= 0
 cc_alt_vars_0 <= 0
 cc_alt_vars_3 <= 0
 cc_alt_vars_13 <= 0
 cc_alt_vars_14 <= 0
 cc_alt_vars_16 <= 0
 cc_alt_vars_21 <= 0
 cc_alt_vars_11 <= 0
 cc_alt_vars_5 <= 0
 cc_alt_vars_10 <= 0
 cc_alt_vars_17 <= 0
Scenario 380
Bounds
 cc_alt_vars_1 <= 0
 cc_alt_vars_22 <= 0
 cc_alt_vars_20 <= 0
 cc_alt_vars_8 <= 0
 cc_alt_vars_7 <= 0
 cc_alt_vars_19 <= 0
 cc_alt_vars_2 <= 0
 cc_alt_vars_3 <= 0
 cc_alt_vars_13 <= 0
 cc_alt_vars_14 <= 0
 cc_alt_vars_16 <= 0
 cc_alt_vars_21 <= 0
 cc_alt_vars_11 <= 0
 cc_alt_vars_4 <= 0
 cc_alt_vars_10 <= 0
 cc_alt_vars_17 <= 0
Scenario 381
Bounds
 cc_alt_vars_22 <= 0
 cc_alt_vars_20 <= 0
 cc_alt_vars_8 <= 0
 cc_alt_vars_7 <= 0
 cc_alt_vars_19 <= 0
 cc_alt_vars_2 <= 0
 cc_alt_vars_0 <= 0
 cc_alt_vars_3 <= 0
 cc_alt_vars_13 <= 0
 cc_alt_vars_14 <= 0
 cc_alt_vars_16 <= 0
 cc_alt_vars_21 <= 0
 cc_alt_vars_11 <= 0
 cc_alt_vars_4 <= 0
 cc_alt_vars_10 <= 0
 cc_alt_vars_17 <= 0
Scenario 382
Bounds
 cc_alt_vars_1 <= 0
 cc_alt_vars_22 <= 0
 cc_alt_vars_20 <= 0
 cc_alt_vars_8 <= 0
 cc_alt_vars_7 <= 0
 cc_alt_vars_19 <= 0
 cc_alt_vars_0 <= 0
 cc_alt_vars_3 <= 0
 cc_alt_vars_13 <= 0
 cc_alt_vars_14 <= 0
 cc_alt_vars_16 <= 0
 cc_alt_vars_21 <= 0
 cc_alt_vars_11 <= 0
 cc_alt_vars_4 <= 0
 cc_alt_vars_10 <= 0
 cc_alt_vars_17 <= 0
Scenario 383
Bounds
 cc_alt_vars_1 <= 0
 cc_alt_vars_22 <= 0
 cc_alt_vars_20 <= 0
 cc_alt_vars_8 <= 0
 cc_alt_vars_19 <= 0
 cc_alt_vars_2 <= 0
 cc_alt_vars_6 <= 0
 cc_alt_vars_13 <= 0
 cc_alt_vars_14 <= 0
 cc_alt_vars_16 <= 0
 cc_alt_vars_21 <= 0
 cc_alt_vars_11 <= 0
 cc_alt_vars_4 <= 0
 cc_alt_vars_5 <= 0
 cc_alt_vars_10 <= 0
 cc_alt_vars_17 <= 0
Scenario 384
Bounds
 cc_alt_vars_22 <= 0
 cc_alt_vars_20 <= 0
 cc_alt_vars_8 <= 0
 cc_alt_vars_19 <= 0
 cc_alt_vars_2 <= 0
 cc_alt_vars_0 <= 0
 cc_alt_vars_6 <= 0
 cc_alt_vars_13 <= 0
 cc_alt_vars_14 <= 0
 cc_alt_vars_16 <= 0
 cc_alt_vars_21 <= 0
 cc_alt_vars_11 <= 0
 cc_alt_vars_4 <= 0
 cc_alt_vars_5 <= 0
 cc_alt_vars_10 <= 0
 cc_alt_vars_17 <= 0
Scenario 385
Bounds
 cc_alt_vars_1 <= 0
 cc_alt_vars_22 <= 0
 cc_alt_vars_20 <= 0
 cc_alt_vars_8 <= 0
 cc_alt_vars_19 <= 0
 cc_alt_vars_0 <= 0
 cc_alt_vars_6 <= 0
 cc_alt_vars_13 <= 0
 cc_alt_vars_14 <= 0
 cc_alt_vars_16 <= 0
 cc_alt_vars_21 <= 0
 cc_alt_vars_11 <= 0
 cc_alt_vars_4 <= 0
 cc_alt_vars_5 <= 0
 cc_alt_vars_10 <= 0
 cc_alt_vars_17 <= 0
Scenario 386
Bounds
 cc_alt_vars_1 <= 0
 cc_alt_vars_22 <= 0
 cc_alt_vars_20 <= 0
 cc_alt_vars_8 <= 0
 cc_alt_vars_19 <= 0
 cc_alt_vars_2 <= 0
 cc_alt_vars_6 <= 0
 cc_alt_vars_3 <= 0
 cc_alt_vars_13 <= 0
 cc_alt_vars_14 <= 0
 cc_alt_vars_16 <= 0
 cc_alt_vars_21 <= 0
 cc_alt_vars_11 <= 0
 cc_alt_vars_5 <= 0
 cc_alt_vars_10 <= 0
 cc_alt_vars_17 <= 0
Scenario 387
Bounds
 cc_alt_vars_22 <= 0
 cc_alt_vars_20 <= 0
 cc_alt_vars_8 <= 0
 cc_alt_vars_19 <= 0
 cc_alt_vars_2 <= 0
 cc_alt_vars_0 <= 0
 cc_alt_vars_6 <= 0
 cc_alt_vars_3 <= 0
 cc_alt_vars_13 <= 0
 cc_alt_vars_14 <= 0
 cc_alt_vars_16 <= 0
 cc_alt_vars_21 <= 0
 cc_alt_vars_11 <= 0
 cc_alt_vars_5 <= 0
 cc_alt_vars_10 <= 0
 cc_alt_vars_17 <= 0
Scenario 388
Bounds
 cc_alt_vars_1 <= 0
 cc_alt_vars_22 <= 0
 cc_alt_vars_20 <= 0
 cc_alt_vars_8 <= 0
 cc_alt_vars_19 <= 0
 cc_alt_vars_0 <= 0
 cc_alt_vars_6 <= 0
 cc_alt_vars_3 <= 0
 cc_alt_vars_13 <= 0
 cc_alt_vars_14 <= 0
 cc_alt_vars_16 <= 0
 cc_alt_vars_21 <= 0
 cc_alt_vars_11 <= 0
 cc_alt_vars_5 <= 0
 cc_alt_vars_10 <= 0
 cc_alt_vars_17 <= 0
Scenario 389
Bounds
 cc_alt_vars_1 <= 0
 cc_alt_vars_22 <= 0
 cc_alt_vars_20 <= 0
 cc_alt_vars_8 <= 0
 cc_alt_vars_19 <= 0
 cc_alt_vars_2 <= 0
 cc_alt_vars_6 <= 0
 cc_alt_vars_3 <= 0
 cc_alt_vars_13 <= 0
 cc_alt_vars_14 <= 0
 cc_alt_vars_16 <= 0
 cc_alt_vars_21 <= 0
 cc_alt_vars_11 <= 0
 cc_alt_vars_4 <= 0
 cc_alt_vars_10 <= 0
 cc_alt_vars_17 <= 0
Scenario 390
Bounds
 cc_alt_vars_22 <= 0
 cc_alt_vars_20 <= 0
 cc_alt_vars_8 <= 0
 cc_alt_vars_19 <= 0
 cc_alt_vars_2 <= 0
 cc_alt_vars_0 <= 0
 cc_alt_vars_6 <= 0
 cc_alt_vars_3 <= 0
 cc_alt_vars_13 <= 0
 cc_alt_vars_14 <= 0
 cc_alt_vars_16 <= 0
 cc_alt_vars_21 <= 0
 cc_alt_vars_11 <= 0
 cc_alt_vars_4 <= 0
 cc_alt_vars_10 <= 0
 cc_alt_vars_17 <= 0
Scenario 391
Bounds
 cc_alt_vars_1 <= 0
 cc_alt_vars_22 <= 0
 cc_alt_vars_20 <= 0
 cc_alt_vars_8 <= 0
 cc_alt_vars_19 <= 0
 cc_alt_vars_0 <= 0
 cc_alt_vars_6 <= 0
 cc_alt_vars_3 <= 0
 cc_alt_vars_13 <= 0
 cc_alt_vars_14 <= 0
 cc_alt_vars_16 <= 0
 cc_alt_vars_21 <= 0
 cc_alt_vars_11 <= 0
 cc_alt_vars_4 <= 0
 cc_alt_vars_10 <= 0
 cc_alt_vars_17 <= 0
Scenario 392
Bounds
 cc_alt_vars_1 <= 0
 cc_alt_vars_22 <= 0
 cc_alt_vars_20 <= 0
 cc_alt_vars_7 <= 0
 cc_alt_vars_19 <= 0
 cc_alt_vars_2 <= 0
 cc_alt_vars_6 <= 0
 cc_alt_vars_13 <= 0
 cc_alt_vars_14 <= 0
 cc_alt_vars_16 <= 0
 cc_alt_vars_21 <= 0
 cc_alt_vars_11 <= 0
 cc_alt_vars_4 <= 0
 cc_alt_vars_5 <= 0
 cc_alt_vars_10 <= 0
 cc_alt_vars_17 <= 0
Scenario 393
Bounds
 cc_alt_vars_22 <= 0
 cc_alt_vars_20 <= 0
 cc_alt_vars_7 <= 0
 cc_alt_vars_19 <= 0
 cc_alt_vars_2 <= 0
 cc_alt_vars_0 <= 0
 cc_alt_vars_6 <= 0
 cc_alt_vars_13 <= 0
 cc_alt_vars_14 <= 0
 cc_alt_vars_16 <= 0
 cc_alt_vars_21 <= 0
 cc_alt_vars_11 <= 0
 cc_alt_vars_4 <= 0
 cc_alt_vars_5 <= 0
 cc_alt_vars_10 <= 0
 cc_alt_vars_17 <= 0
Scenario 394
Bounds
 cc_alt_vars_1 <= 0
 cc_alt_vars_22 <= 0
 cc_alt_vars_20 <= 0
 cc_alt_vars_7 <= 0
 cc_alt_vars_19 <= 0
 cc_alt_vars_0 <= 0
 cc_alt_vars_6 <= 0
 cc_alt_vars_13 <= 0
 cc_alt_vars_14 <= 0
 cc_alt_vars_16 <= 0
 cc_alt_vars_21 <= 0
 cc_alt_vars_11 <= 0
 cc_alt_vars_4 <= 0
 cc_alt_vars_5 <= 0
 cc_alt_vars_10 <= 0
 cc_alt_vars_17 <= 0
Scenario 395
Bounds
 cc_alt_vars_1 <= 0
 cc_alt_vars_22 <= 0
 cc_alt_vars_20 <= 0
 cc_alt_vars_7 <= 0
 cc_alt_vars_19 <= 0
 cc_alt_vars_2 <= 0
 cc_alt_vars_6 <= 0
 cc_alt_vars_3 <= 0
 cc_alt_vars_13 <= 0
 cc_alt_vars_14 <= 0
 cc_alt_vars_16 <= 0
 cc_alt_vars_21 <= 0
 cc_alt_vars_11 <= 0
 cc_alt_vars_5 <= 0
 cc_alt_vars_10 <= 0
 cc_alt_vars_17 <= 0
Scenario 396
Bounds
 cc_alt_vars_22 <= 0
 cc_alt_vars_20 <= 0
 cc_alt_vars_7 <= 0
 cc_alt_vars_19 <= 0
 cc_alt_vars_2 <= 0
 cc_alt_vars_0 <= 0
 cc_alt_vars_6 <= 0
 cc_alt_vars_3 <= 0
 cc_alt_vars_13 <= 0
 cc_alt_vars_14 <= 0
 cc_alt_vars_16 <= 0
 cc_alt_vars_21 <= 0
 cc_alt_vars_11 <= 0
 cc_alt_vars_5 <= 0
 cc_alt_vars_10 <= 0
 cc_alt_vars_17 <= 0
Scenario 397
Bounds
 cc_alt_vars_1 <= 0
 cc_alt_vars_22 <= 0
 cc_alt_vars_20 <= 0
 cc_alt_vars_7 <= 0
 cc_alt_vars_19 <= 0
 cc_alt_vars_0 <= 0
 cc_alt_vars_6 <= 0
 cc_alt_vars_3 <= 0
 cc_alt_vars_13 <= 0
 cc_alt_vars_14 <= 0
 cc_alt_vars_16 <= 0
 cc_alt_vars_21 <= 0
 cc_alt_vars_11 <= 0
 cc_alt_vars_5 <= 0
 cc_alt_vars_10 <= 0
 cc_alt_vars_17 <= 0
Scenario 398
Bounds
 cc_alt_vars_1 <= 0
 cc_alt_vars_22 <= 0
 cc_alt_vars_20 <= 0
 cc_alt_vars_7 <= 0
 cc_alt_vars_19 <= 0
 cc_alt_vars_2 <= 0
 cc_alt_vars_6 <= 0
 cc_alt_vars_3 <= 0
 cc_alt_vars_13 <= 0
 cc_alt_vars_14 <= 0
 cc_alt_vars_16 <= 0
 cc_alt_vars_21 <= 0
 cc_alt_vars_11 <= 0
 cc_alt_vars_4 <= 0
 cc_alt_vars_10 <= 0
 cc_alt_vars_17 <= 0
Scenario 399
Bounds
 cc_alt_vars_22 <= 0
 cc_alt_vars_20 <= 0
 cc_alt_vars_7 <= 0
 cc_alt_vars_19 <= 0
 cc_alt_vars_2 <= 0
 cc_alt_vars_0 <= 0
 cc_alt_vars_6 <= 0
 cc_alt_vars_3 <= 0
 cc_alt_vars_13 <= 0
 cc_alt_vars_14 <= 0
 cc_alt_vars_16 <= 0
 cc_alt_vars_21 <= 0
 cc_alt_vars_11 <= 0
 cc_alt_vars_4 <= 0
 cc_alt_vars_10 <= 0
 cc_alt_vars_17 <= 0
Scenario 400
Bounds
 cc_alt_vars_1 <= 0
 cc_alt_vars_22 <= 0
 cc_alt_vars_20 <= 0
 cc_alt_vars_7 <= 0
 cc_alt_vars_19 <= 0
 cc_alt_vars_0 <= 0
 cc_alt_vars_6 <= 0
 cc_alt_vars_3 <= 0
 cc_alt_vars_13 <= 0
 cc_alt_vars_14 <= 0
 cc_alt_vars_16 <= 0
 cc_alt_vars_21 <= 0
 cc_alt_vars_11 <= 0
 cc_alt_vars_4 <= 0
 cc_alt_vars_10 <= 0
 cc_alt_vars_17 <= 0
Scenario 401
Bounds
 cc_alt_vars_1 <= 0
 cc_alt_vars_22 <= 0
 cc_alt_vars_20 <= 0
 cc_alt_vars_9 <= 0
 cc_alt_vars_8 <= 0
 cc_alt_vars_7 <= 0
 cc_alt_vars_19 <= 0
 cc_alt_vars_2 <= 0
 cc_alt_vars_13 <= 0
 cc_alt_vars_14 <= 0
 cc_alt_vars_16 <= 0
 cc_alt_vars_21 <= 0
 cc_alt_vars_11 <= 0
 cc_alt_vars_4 <= 0
 cc_alt_vars_5 <= 0
 cc_alt_vars_17 <= 0
Scenario 402
Bounds
 cc_alt_vars_22 <= 0
 cc_alt_vars_20 <= 0
 cc_alt_vars_9 <= 0
 cc_alt_vars_8 <= 0
 cc_alt_vars_7 <= 0
 cc_alt_vars_19 <= 0
 cc_alt_vars_2 <= 0
 cc_alt_vars_0 <= 0
 cc_alt_vars_13 <= 0
 cc_alt_vars_14 <= 0
 cc_alt_vars_16 <= 0
 cc_alt_vars_21 <= 0
 cc_alt_vars_11 <= 0
 cc_alt_vars_4 <= 0
 cc_alt_vars_5 <= 0
 cc_alt_vars_17 <= 0
Scenario 403
Bounds
 cc_alt_vars_1 <= 0
 cc_alt_vars_22 <= 0
 cc_alt_vars_20 <= 0
 cc_alt_vars_9 <= 0
 cc_alt_vars_8 <= 0
 cc_alt_vars_7 <= 0
 cc_alt_vars_19 <= 0
 cc_alt_vars_0 <= 0
 cc_alt_vars_13 <= 0
 cc_alt_vars_14 <= 0
 cc_alt_vars_16 <= 0
 cc_alt_vars_21 <= 0
 cc_alt_vars_11 <= 0
 cc_alt_vars_4 <= 0
 cc_alt_vars_5 <= 0
 cc_alt_vars_17 <= 0
Scenario 404
Bounds
 cc_alt_vars_1 <= 0
 cc_alt_vars_22 <= 0
 cc_alt_vars_20 <= 0
 cc_alt_vars_9 <= 0
 cc_alt_vars_8 <= 0
 cc_alt_vars_7 <= 0
 cc_alt_vars_19 <= 0
 cc_alt_vars_2 <= 0
 cc_alt_vars_3 <= 0
 cc_alt_vars_13 <= 0
 cc_alt_vars_14 <= 0
 cc_alt_vars_16 <= 0
 cc_alt_vars_21 <= 0
 cc_alt_vars_11 <= 0
 cc_alt_vars_5 <= 0
 cc_alt_vars_17 <= 0
Scenario 405
Bounds
 cc_alt_vars_22 <= 0
 cc_alt_vars_20 <= 0
 cc_alt_vars_9 <= 0
 cc_alt_vars_8 <= 0
 cc_alt_vars_7 <= 0
 cc_alt_vars_19 <= 0
 cc_alt_vars_2 <= 0
 cc_alt_vars_0 <= 0
 cc_alt_vars_3 <= 0
 cc_alt_vars_13 <= 0
 cc_alt_vars_14 <= 0
 cc_alt_vars_16 <= 0
 cc_alt_vars_21 <= 0
 cc_alt_vars_11 <= 0
 cc_alt_vars_5 <= 0
 cc_alt_vars_17 <= 0
Scenario 406
Bounds
 cc_alt_vars_1 <= 0
 cc_alt_vars_22 <= 0
 cc_alt_vars_20 <= 0
 cc_alt_vars_9 <= 0
 cc_alt_vars_8 <= 0
 cc_alt_vars_7 <= 0
 cc_alt_vars_19 <= 0
 cc_alt_vars_0 <= 0
 cc_alt_vars_3 <= 0
 cc_alt_vars_13 <= 0
 cc_alt_vars_14 <= 0
 cc_alt_vars_16 <= 0
 cc_alt_vars_21 <= 0
 cc_alt_vars_11 <= 0
 cc_alt_vars_5 <= 0
 cc_alt_vars_17 <= 0
Scenario 407
Bounds
 cc_alt_vars_1 <= 0
 cc_alt_vars_22 <= 0
 cc_alt_vars_20 <= 0
 cc_alt_vars_9 <= 0
 cc_alt_vars_8 <= 0
 cc_alt_vars_7 <= 0
 cc_alt_vars_19 <= 0
 cc_alt_vars_2 <= 0
 cc_alt_vars_3 <= 0
 cc_alt_vars_13 <= 0
 cc_alt_vars_14 <= 0
 cc_alt_vars_16 <= 0
 cc_alt_vars_21 <= 0
 cc_alt_vars_11 <= 0
 cc_alt_vars_4 <= 0
 cc_alt_vars_17 <= 0
Scenario 408
Bounds
 cc_alt_vars_22 <= 0
 cc_alt_vars_20 <= 0
 cc_alt_vars_9 <= 0
 cc_alt_vars_8 <= 0
 cc_alt_vars_7 <= 0
 cc_alt_vars_19 <= 0
 cc_alt_vars_2 <= 0
 cc_alt_vars_0 <= 0
 cc_alt_vars_3 <= 0
 cc_alt_vars_13 <= 0
 cc_alt_vars_14 <= 0
 cc_alt_vars_16 <= 0
 cc_alt_vars_21 <= 0
 cc_alt_vars_11 <= 0
 cc_alt_vars_4 <= 0
 cc_alt_vars_17 <= 0
Scenario 409
Bounds
 cc_alt_vars_1 <= 0
 cc_alt_vars_22 <= 0
 cc_alt_vars_20 <= 0
 cc_alt_vars_9 <= 0
 cc_alt_vars_8 <= 0
 cc_alt_vars_7 <= 0
 cc_alt_vars_19 <= 0
 cc_alt_vars_0 <= 0
 cc_alt_vars_3 <= 0
 cc_alt_vars_13 <= 0
 cc_alt_vars_14 <= 0
 cc_alt_vars_16 <= 0
 cc_alt_vars_21 <= 0
 cc_alt_vars_11 <= 0
 cc_alt_vars_4 <= 0
 cc_alt_vars_17 <= 0
Scenario 410
Bounds
 cc_alt_vars_1 <= 0
 cc_alt_vars_22 <= 0
 cc_alt_vars_20 <= 0
 cc_alt_vars_9 <= 0
 cc_alt_vars_8 <= 0
 cc_alt_vars_19 <= 0
 cc_alt_vars_2 <= 0
 cc_alt_vars_6 <= 0
 cc_alt_vars_13 <= 0
 cc_alt_vars_14 <= 0
 cc_alt_vars_16 <= 0
 cc_alt_vars_21 <= 0
 cc_alt_vars_11 <= 0
 cc_alt_vars_4 <= 0
 cc_alt_vars_5 <= 0
 cc_alt_vars_17 <= 0
Scenario 411
Bounds
 cc_alt_vars_22 <= 0
 cc_alt_vars_20 <= 0
 cc_alt_vars_9 <= 0
 cc_alt_vars_8 <= 0
 cc_alt_vars_19 <= 0
 cc_alt_vars_2 <= 0
 cc_alt_vars_0 <= 0
 cc_alt_vars_6 <= 0
 cc_alt_vars_13 <= 0
 cc_alt_vars_14 <= 0
 cc_alt_vars_16 <= 0
 cc_alt_vars_21 <= 0
 cc_alt_vars_11 <= 0
 cc_alt_vars_4 <= 0
 cc_alt_vars_5 <= 0
 cc_alt_vars_17 <= 0
Scenario 412
Bounds
 cc_alt_vars_1 <= 0
 cc_alt_vars_22 <= 0
 cc_alt_vars_20 <= 0
 cc_alt_vars_9 <= 0
 cc_alt_vars_8 <= 0
 cc_alt_vars_19 <= 0
 cc_alt_vars_0 <= 0
 cc_alt_vars_6 <= 0
 cc_alt_vars_13 <= 0
 cc_alt_vars_14 <= 0
 cc_alt_vars_16 <= 0
 cc_alt_vars_21 <= 0
 cc_alt_vars_11 <= 0
 cc_alt_vars_4 <= 0
 cc_alt_vars_5 <= 0
 cc_alt_vars_17 <= 0
Scenario 413
Bounds
 cc_alt_vars_1 <= 0
 cc_alt_vars_22 <= 0
 cc_alt_vars_20 <= 0
 cc_alt_vars_9 <= 0
 cc_alt_vars_8 <= 0
 cc_alt_vars_19 <= 0
 cc_alt_vars_2 <= 0
 cc_alt_vars_6 <= 0
 cc_alt_vars_3 <= 0
 cc_alt_vars_13 <= 0
 cc_alt_vars_14 <= 0
 cc_alt_vars_16 <= 0
 cc_alt_vars_21 <= 0
 cc_alt_vars_11 <= 0
 cc_alt_vars_5 <= 0
 cc_alt_vars_17 <= 0
Scenario 414
Bounds
 cc_alt_vars_22 <= 0
 cc_alt_vars_20 <= 0
 cc_alt_vars_9 <= 0
 cc_alt_vars_8 <= 0
 cc_alt_vars_19 <= 0
 cc_alt_vars_2 <= 0
 cc_alt_vars_0 <= 0
 cc_alt_vars_6 <= 0
 cc_alt_vars_3 <= 0
 cc_alt_vars_13 <= 0
 cc_alt_vars_14 <= 0
 cc_alt_vars_16 <= 0
 cc_alt_vars_21 <= 0
 cc_alt_vars_11 <= 0
 cc_alt_vars_5 <= 0
 cc_alt_vars_17 <= 0
Scenario 415
Bounds
 cc_alt_vars_1 <= 0
 cc_alt_vars_22 <= 0
 cc_alt_vars_20 <= 0
 cc_alt_vars_9 <= 0
 cc_alt_vars_8 <= 0
 cc_alt_vars_19 <= 0
 cc_alt_vars_0 <= 0
 cc_alt_vars_6 <= 0
 cc_alt_vars_3 <= 0
 cc_alt_vars_13 <= 0
 cc_alt_vars_14 <= 0
 cc_alt_vars_16 <= 0
 cc_alt_vars_21 <= 0
 cc_alt_vars_11 <= 0
 cc_alt_vars_5 <= 0
 cc_alt_vars_17 <= 0
Scenario 416
Bounds
 cc_alt_vars_1 <= 0
 cc_alt_vars_22 <= 0
 cc_alt_vars_20 <= 0
 cc_alt_vars_9 <= 0
 cc_alt_vars_8 <= 0
 cc_alt_vars_19 <= 0
 cc_alt_vars_2 <= 0
 cc_alt_vars_6 <= 0
 cc_alt_vars_3 <= 0
 cc_alt_vars_13 <= 0
 cc_alt_vars_14 <= 0
 cc_alt_vars_16 <= 0
 cc_alt_vars_21 <= 0
 cc_alt_vars_11 <= 0
 cc_alt_vars_4 <= 0
 cc_alt_vars_17 <= 0
Scenario 417
Bounds
 cc_alt_vars_22 <= 0
 cc_alt_vars_20 <= 0
 cc_alt_vars_9 <= 0
 cc_alt_vars_8 <= 0
 cc_alt_vars_19 <= 0
 cc_alt_vars_2 <= 0
 cc_alt_vars_0 <= 0
 cc_alt_vars_6 <= 0
 cc_alt_vars_3 <= 0
 cc_alt_vars_13 <= 0
 cc_alt_vars_14 <= 0
 cc_alt_vars_16 <= 0
 cc_alt_vars_21 <= 0
 cc_alt_vars_11 <= 0
 cc_alt_vars_4 <= 0
 cc_alt_vars_17 <= 0
Scenario 418
Bounds
 cc_alt_vars_1 <= 0
 cc_alt_vars_22 <= 0
 cc_alt_vars_20 <= 0
 cc_alt_vars_9 <= 0
 cc_alt_vars_8 <= 0
 cc_alt_vars_19 <= 0
 cc_alt_vars_0 <= 0
 cc_alt_vars_6 <= 0
 cc_alt_vars_3 <= 0
 cc_alt_vars_13 <= 0
 cc_alt_vars_14 <= 0
 cc_alt_vars_16 <= 0
 cc_alt_vars_21 <= 0
 cc_alt_vars_11 <= 0
 cc_alt_vars_4 <= 0
 cc_alt_vars_17 <= 0
Scenario 419
Bounds
 cc_alt_vars_1 <= 0
 cc_alt_vars_22 <= 0
 cc_alt_vars_20 <= 0
 cc_alt_vars_9 <= 0
 cc_alt_vars_7 <= 0
 cc_alt_vars_19 <= 0
 cc_alt_vars_2 <= 0
 cc_alt_vars_6 <= 0
 cc_alt_vars_13 <= 0
 cc_alt_vars_14 <= 0
 cc_alt_vars_16 <= 0
 cc_alt_vars_21 <= 0
 cc_alt_vars_11 <= 0
 cc_alt_vars_4 <= 0
 cc_alt_vars_5 <= 0
 cc_alt_vars_17 <= 0
Scenario 420
Bounds
 cc_alt_vars_22 <= 0
 cc_alt_vars_20 <= 0
 cc_alt_vars_9 <= 0
 cc_alt_vars_7 <= 0
 cc_alt_vars_19 <= 0
 cc_alt_vars_2 <= 0
 cc_alt_vars_0 <= 0
 cc_alt_vars_6 <= 0
 cc_alt_vars_13 <= 0
 cc_alt_vars_14 <= 0
 cc_alt_vars_16 <= 0
 cc_alt_vars_21 <= 0
 cc_alt_vars_11 <= 0
 cc_alt_vars_4 <= 0
 cc_alt_vars_5 <= 0
 cc_alt_vars_17 <= 0
Scenario 421
Bounds
 cc_alt_vars_1 <= 0
 cc_alt_vars_22 <= 0
 cc_alt_vars_20 <= 0
 cc_alt_vars_9 <= 0
 cc_alt_vars_7 <= 0
 cc_alt_vars_19 <= 0
 cc_alt_vars_0 <= 0
 cc_alt_vars_6 <= 0
 cc_alt_vars_13 <= 0
 cc_alt_vars_14 <= 0
 cc_alt_vars_16 <= 0
 cc_alt_vars_21 <= 0
 cc_alt_vars_11 <= 0
 cc_alt_vars_4 <= 0
 cc_alt_vars_5 <= 0
 cc_alt_vars_17 <= 0
Scenario 422
Bounds
 cc_alt_vars_1 <= 0
 cc_alt_vars_22 <= 0
 cc_alt_vars_20 <= 0
 cc_alt_vars_9 <= 0
 cc_alt_vars_7 <= 0
 cc_alt_vars_19 <= 0
 cc_alt_vars_2 <= 0
 cc_alt_vars_6 <= 0
 cc_alt_vars_3 <= 0
 cc_alt_vars_13 <= 0
 cc_alt_vars_14 <= 0
 cc_alt_vars_16 <= 0
 cc_alt_vars_21 <= 0
 cc_alt_vars_11 <= 0
 cc_alt_vars_5 <= 0
 cc_alt_vars_17 <= 0
Scenario 423
Bounds
 cc_alt_vars_22 <= 0
 cc_alt_vars_20 <= 0
 cc_alt_vars_9 <= 0
 cc_alt_vars_7 <= 0
 cc_alt_vars_19 <= 0
 cc_alt_vars_2 <= 0
 cc_alt_vars_0 <= 0
 cc_alt_vars_6 <= 0
 cc_alt_vars_3 <= 0
 cc_alt_vars_13 <= 0
 cc_alt_vars_14 <= 0
 cc_alt_vars_16 <= 0
 cc_alt_vars_21 <= 0
 cc_alt_vars_11 <= 0
 cc_alt_vars_5 <= 0
 cc_alt_vars_17 <= 0
Scenario 424
Bounds
 cc_alt_vars_1 <= 0
 cc_alt_vars_22 <= 0
 cc_alt_vars_20 <= 0
 cc_alt_vars_9 <= 0
 cc_alt_vars_7 <= 0
 cc_alt_vars_19 <= 0
 cc_alt_vars_0 <= 0
 cc_alt_vars_6 <= 0
 cc_alt_vars_3 <= 0
 cc_alt_vars_13 <= 0
 cc_alt_vars_14 <= 0
 cc_alt_vars_16 <= 0
 cc_alt_vars_21 <= 0
 cc_alt_vars_11 <= 0
 cc_alt_vars_5 <= 0
 cc_alt_vars_17 <= 0
Scenario 425
Bounds
 cc_alt_vars_1 <= 0
 cc_alt_vars_22 <= 0
 cc_alt_vars_20 <= 0
 cc_alt_vars_9 <= 0
 cc_alt_vars_7 <= 0
 cc_alt_vars_19 <= 0
 cc_alt_vars_2 <= 0
 cc_alt_vars_6 <= 0
 cc_alt_vars_3 <= 0
 cc_alt_vars_13 <= 0
 cc_alt_vars_14 <= 0
 cc_alt_vars_16 <= 0
 cc_alt_vars_21 <= 0
 cc_alt_vars_11 <= 0
 cc_alt_vars_4 <= 0
 cc_alt_vars_17 <= 0
Scenario 426
Bounds
 cc_alt_vars_22 <= 0
 cc_alt_vars_20 <= 0
 cc_alt_vars_9 <= 0
 cc_alt_vars_7 <= 0
 cc_alt_vars_19 <= 0
 cc_alt_vars_2 <= 0
 cc_alt_vars_0 <= 0
 cc_alt_vars_6 <= 0
 cc_alt_vars_3 <= 0
 cc_alt_vars_13 <= 0
 cc_alt_vars_14 <= 0
 cc_alt_vars_16 <= 0
 cc_alt_vars_21 <= 0
 cc_alt_vars_11 <= 0
 cc_alt_vars_4 <= 0
 cc_alt_vars_17 <= 0
Scenario 427
Bounds
 cc_alt_vars_1 <= 0
 cc_alt_vars_22 <= 0
 cc_alt_vars_20 <= 0
 cc_alt_vars_9 <= 0
 cc_alt_vars_7 <= 0
 cc_alt_vars_19 <= 0
 cc_alt_vars_0 <= 0
 cc_alt_vars_6 <= 0
 cc_alt_vars_3 <= 0
 cc_alt_vars_13 <= 0
 cc_alt_vars_14 <= 0
 cc_alt_vars_16 <= 0
 cc_alt_vars_21 <= 0
 cc_alt_vars_11 <= 0
 cc_alt_vars_4 <= 0
 cc_alt_vars_17 <= 0
Scenario 428
Bounds
 cc_alt_vars_1 <= 0
 cc_alt_vars_22 <= 0
 cc_alt_vars_20 <= 0
 cc_alt_vars_9 <= 0
 cc_alt_vars_8 <= 0
 cc_alt_vars_7 <= 0
 cc_alt_vars_19 <= 0
 cc_alt_vars_2 <= 0
 cc_alt_vars_13 <= 0
 cc_alt_vars_14 <= 0
 cc_alt_vars_16 <= 0
 cc_alt_vars_21 <= 0
 cc_alt_vars_4 <= 0
 cc_alt_vars_5 <= 0
 cc_alt_vars_10 <= 0
 cc_alt_vars_17 <= 0
Scenario 429
Bounds
 cc_alt_vars_22 <= 0
 cc_alt_vars_20 <= 0
 cc_alt_vars_9 <= 0
 cc_alt_vars_8 <= 0
 cc_alt_vars_7 <= 0
 cc_alt_vars_19 <= 0
 cc_alt_vars_2 <= 0
 cc_alt_vars_0 <= 0
 cc_alt_vars_13 <= 0
 cc_alt_vars_14 <= 0
 cc_alt_vars_16 <= 0
 cc_alt_vars_21 <= 0
 cc_alt_vars_4 <= 0
 cc_alt_vars_5 <= 0
 cc_alt_vars_10 <= 0
 cc_alt_vars_17 <= 0
Scenario 430
Bounds
 cc_alt_vars_1 <= 0
 cc_alt_vars_22 <= 0
 cc_alt_vars_20 <= 0
 cc_alt_vars_9 <= 0
 cc_alt_vars_8 <= 0
 cc_alt_vars_7 <= 0
 cc_alt_vars_19 <= 0
 cc_alt_vars_0 <= 0
 cc_alt_vars_13 <= 0
 cc_alt_vars_14 <= 0
 cc_alt_vars_16 <= 0
 cc_alt_vars_21 <= 0
 cc_alt_vars_4 <= 0
 cc_alt_vars_5 <= 0
 cc_alt_vars_10 <= 0
 cc_alt_vars_17 <= 0
Scenario 431
Bounds
 cc_alt_vars_1 <= 0
 cc_alt_vars_22 <= 0
 cc_alt_vars_20 <= 0
 cc_alt_vars_9 <= 0
 cc_alt_vars_8 <= 0
 cc_alt_vars_7 <= 0
 cc_alt_vars_19 <= 0
 cc_alt_vars_2 <= 0
 cc_alt_vars_3 <= 0
 cc_alt_vars_13 <= 0
 cc_alt_vars_14 <= 0
 cc_alt_vars_16 <= 0
 cc_alt_vars_21 <= 0
 cc_alt_vars_5 <= 0
 cc_alt_vars_10 <= 0
 cc_alt_vars_17 <= 0
Scenario 432
Bounds
 cc_alt_vars_22 <= 0
 cc_alt_vars_20 <= 0
 cc_alt_vars_9 <= 0
 cc_alt_vars_8 <= 0
 cc_alt_vars_7 <= 0
 cc_alt_vars_19 <= 0
 cc_alt_vars_2 <= 0
 cc_alt_vars_0 <= 0
 cc_alt_vars_3 <= 0
 cc_alt_vars_13 <= 0
 cc_alt_vars_14 <= 0
 cc_alt_vars_16 <= 0
 cc_alt_vars_21 <= 0
 cc_alt_vars_5 <= 0
 cc_alt_vars_10 <= 0
 cc_alt_vars_17 <= 0
Scenario 433
Bounds
 cc_alt_vars_1 <= 0
 cc_alt_vars_22 <= 0
 cc_alt_vars_20 <= 0
 cc_alt_vars_9 <= 0
 cc_alt_vars_8 <= 0
 cc_alt_vars_7 <= 0
 cc_alt_vars_19 <= 0
 cc_alt_vars_0 <= 0
 cc_alt_vars_3 <= 0
 cc_alt_vars_13 <= 0
 cc_alt_vars_14 <= 0
 cc_alt_vars_16 <= 0
 cc_alt_vars_21 <= 0
 cc_alt_vars_5 <= 0
 cc_alt_vars_10 <= 0
 cc_alt_vars_17 <= 0
Scenario 434
Bounds
 cc_alt_vars_1 <= 0
 cc_alt_vars_22 <= 0
 cc_alt_vars_20 <= 0
 cc_alt_vars_9 <= 0
 cc_alt_vars_8 <= 0
 cc_alt_vars_7 <= 0
 cc_alt_vars_19 <= 0
 cc_alt_vars_2 <= 0
 cc_alt_vars_3 <= 0
 cc_alt_vars_13 <= 0
 cc_alt_vars_14 <= 0
 cc_alt_vars_16 <= 0
 cc_alt_vars_21 <= 0
 cc_alt_vars_4 <= 0
 cc_alt_vars_10 <= 0
 cc_alt_vars_17 <= 0
Scenario 435
Bounds
 cc_alt_vars_22 <= 0
 cc_alt_vars_20 <= 0
 cc_alt_vars_9 <= 0
 cc_alt_vars_8 <= 0
 cc_alt_vars_7 <= 0
 cc_alt_vars_19 <= 0
 cc_alt_vars_2 <= 0
 cc_alt_vars_0 <= 0
 cc_alt_vars_3 <= 0
 cc_alt_vars_13 <= 0
 cc_alt_vars_14 <= 0
 cc_alt_vars_16 <= 0
 cc_alt_vars_21 <= 0
 cc_alt_vars_4 <= 0
 cc_alt_vars_10 <= 0
 cc_alt_vars_17 <= 0
Scenario 436
Bounds
 cc_alt_vars_1 <= 0
 cc_alt_vars_22 <= 0
 cc_alt_vars_20 <= 0
 cc_alt_vars_9 <= 0
 cc_alt_vars_8 <= 0
 cc_alt_vars_7 <= 0
 cc_alt_vars_19 <= 0
 cc_alt_vars_0 <= 0
 cc_alt_vars_3 <= 0
 cc_alt_vars_13 <= 0
 cc_alt_vars_14 <= 0
 cc_alt_vars_16 <= 0
 cc_alt_vars_21 <= 0
 cc_alt_vars_4 <= 0
 cc_alt_vars_10 <= 0
 cc_alt_vars_17 <= 0
Scenario 437
Bounds
 cc_alt_vars_1 <= 0
 cc_alt_vars_22 <= 0
 cc_alt_vars_20 <= 0
 cc_alt_vars_9 <= 0
 cc_alt_vars_8 <= 0
 cc_alt_vars_19 <= 0
 cc_alt_vars_2 <= 0
 cc_alt_vars_6 <= 0
 cc_alt_vars_13 <= 0
 cc_alt_vars_14 <= 0
 cc_alt_vars_16 <= 0
 cc_alt_vars_21 <= 0
 cc_alt_vars_4 <= 0
 cc_alt_vars_5 <= 0
 cc_alt_vars_10 <= 0
 cc_alt_vars_17 <= 0
Scenario 438
Bounds
 cc_alt_vars_22 <= 0
 cc_alt_vars_20 <= 0
 cc_alt_vars_9 <= 0
 cc_alt_vars_8 <= 0
 cc_alt_vars_19 <= 0
 cc_alt_vars_2 <= 0
 cc_alt_vars_0 <= 0
 cc_alt_vars_6 <= 0
 cc_alt_vars_13 <= 0
 cc_alt_vars_14 <= 0
 cc_alt_vars_16 <= 0
 cc_alt_vars_21 <= 0
 cc_alt_vars_4 <= 0
 cc_alt_vars_5 <= 0
 cc_alt_vars_10 <= 0
 cc_alt_vars_17 <= 0
Scenario 439
Bounds
 cc_alt_vars_1 <= 0
 cc_alt_vars_22 <= 0
 cc_alt_vars_20 <= 0
 cc_alt_vars_9 <= 0
 cc_alt_vars_8 <= 0
 cc_alt_vars_19 <= 0
 cc_alt_vars_0 <= 0
 cc_alt_vars_6 <= 0
 cc_alt_vars_13 <= 0
 cc_alt_vars_14 <= 0
 cc_alt_vars_16 <= 0
 cc_alt_vars_21 <= 0
 cc_alt_vars_4 <= 0
 cc_alt_vars_5 <= 0
 cc_alt_vars_10 <= 0
 cc_alt_vars_17 <= 0
Scenario 440
Bounds
 cc_alt_vars_1 <= 0
 cc_alt_vars_22 <= 0
 cc_alt_vars_20 <= 0
 cc_alt_vars_9 <= 0
 cc_alt_vars_8 <= 0
 cc_alt_vars_19 <= 0
 cc_alt_vars_2 <= 0
 cc_alt_vars_6 <= 0
 cc_alt_vars_3 <= 0
 cc_alt_vars_13 <= 0
 cc_alt_vars_14 <= 0
 cc_alt_vars_16 <= 0
 cc_alt_vars_21 <= 0
 cc_alt_vars_5 <= 0
 cc_alt_vars_10 <= 0
 cc_alt_vars_17 <= 0
Scenario 441
Bounds
 cc_alt_vars_22 <= 0
 cc_alt_vars_20 <= 0
 cc_alt_vars_9 <= 0
 cc_alt_vars_8 <= 0
 cc_alt_vars_19 <= 0
 cc_alt_vars_2 <= 0
 cc_alt_vars_0 <= 0
 cc_alt_vars_6 <= 0
 cc_alt_vars_3 <= 0
 cc_alt_vars_13 <= 0
 cc_alt_vars_14 <= 0
 cc_alt_vars_16 <= 0
 cc_alt_vars_21 <= 0
 cc_alt_vars_5 <= 0
 cc_alt_vars_10 <= 0
 cc_alt_vars_17 <= 0
Scenario 442
Bounds
 cc_alt_vars_1 <= 0
 cc_alt_vars_22 <= 0
 cc_alt_vars_20 <= 0
 cc_alt_vars_9 <= 0
 cc_alt_vars_8 <= 0
 cc_alt_vars_19 <= 0
 cc_alt_vars_0 <= 0
 cc_alt_vars_6 <= 0
 cc_alt_vars_3 <= 0
 cc_alt_vars_13 <= 0
 cc_alt_vars_14 <= 0
 cc_alt_vars_16 <= 0
 cc_alt_vars_21 <= 0
 cc_alt_vars_5 <= 0
 cc_alt_vars_10 <= 0
 cc_alt_vars_17 <= 0
Scenario 443
Bounds
 cc_alt_vars_1 <= 0
 cc_alt_vars_22 <= 0
 cc_alt_vars_20 <= 0
 cc_alt_vars_9 <= 0
 cc_alt_vars_8 <= 0
 cc_alt_vars_19 <= 0
 cc_alt_vars_2 <= 0
 cc_alt_vars_6 <= 0
 cc_alt_vars_3 <= 0
 cc_alt_vars_13 <= 0
 cc_alt_vars_14 <= 0
 cc_alt_vars_16 <= 0
 cc_alt_vars_21 <= 0
 cc_alt_vars_4 <= 0
 cc_alt_vars_10 <= 0
 cc_alt_vars_17 <= 0
Scenario 444
Bounds
 cc_alt_vars_22 <= 0
 cc_alt_vars_20 <= 0
 cc_alt_vars_9 <= 0
 cc_alt_vars_8 <= 0
 cc_alt_vars_19 <= 0
 cc_alt_vars_2 <= 0
 cc_alt_vars_0 <= 0
 cc_alt_vars_6 <= 0
 cc_alt_vars_3 <= 0
 cc_alt_vars_13 <= 0
 cc_alt_vars_14 <= 0
 cc_alt_vars_16 <= 0
 cc_alt_vars_21 <= 0
 cc_alt_vars_4 <= 0
 cc_alt_vars_10 <= 0
 cc_alt_vars_17 <= 0
Scenario 445
Bounds
 cc_alt_vars_1 <= 0
 cc_alt_vars_22 <= 0
 cc_alt_vars_20 <= 0
 cc_alt_vars_9 <= 0
 cc_alt_vars_8 <= 0
 cc_alt_vars_19 <= 0
 cc_alt_vars_0 <= 0
 cc_alt_vars_6 <= 0
 cc_alt_vars_3 <= 0
 cc_alt_vars_13 <= 0
 cc_alt_vars_14 <= 0
 cc_alt_vars_16 <= 0
 cc_alt_vars_21 <= 0
 cc_alt_vars_4 <= 0
 cc_alt_vars_10 <= 0
 cc_alt_vars_17 <= 0
Scenario 446
Bounds
 cc_alt_vars_1 <= 0
 cc_alt_vars_22 <= 0
 cc_alt_vars_20 <= 0
 cc_alt_vars_9 <= 0
 cc_alt_vars_7 <= 0
 cc_alt_vars_19 <= 0
 cc_alt_vars_2 <= 0
 cc_alt_vars_6 <= 0
 cc_alt_vars_13 <= 0
 cc_alt_vars_14 <= 0
 cc_alt_vars_16 <= 0
 cc_alt_vars_21 <= 0
 cc_alt_vars_4 <= 0
 cc_alt_vars_5 <= 0
 cc_alt_vars_10 <= 0
 cc_alt_vars_17 <= 0
Scenario 447
Bounds
 cc_alt_vars_22 <= 0
 cc_alt_vars_20 <= 0
 cc_alt_vars_9 <= 0
 cc_alt_vars_7 <= 0
 cc_alt_vars_19 <= 0
 cc_alt_vars_2 <= 0
 cc_alt_vars_0 <= 0
 cc_alt_vars_6 <= 0
 cc_alt_vars_13 <= 0
 cc_alt_vars_14 <= 0
 cc_alt_vars_16 <= 0
 cc_alt_vars_21 <= 0
 cc_alt_vars_4 <= 0
 cc_alt_vars_5 <= 0
 cc_alt_vars_10 <= 0
 cc_alt_vars_17 <= 0
Scenario 448
Bounds
 cc_alt_vars_1 <= 0
 cc_alt_vars_22 <= 0
 cc_alt_vars_20 <= 0
 cc_alt_vars_9 <= 0
 cc_alt_vars_7 <= 0
 cc_alt_vars_19 <= 0
 cc_alt_vars_0 <= 0
 cc_alt_vars_6 <= 0
 cc_alt_vars_13 <= 0
 cc_alt_vars_14 <= 0
 cc_alt_vars_16 <= 0
 cc_alt_vars_21 <= 0
 cc_alt_vars_4 <= 0
 cc_alt_vars_5 <= 0
 cc_alt_vars_10 <= 0
 cc_alt_vars_17 <= 0
Scenario 449
Bounds
 cc_alt_vars_1 <= 0
 cc_alt_vars_22 <= 0
 cc_alt_vars_20 <= 0
 cc_alt_vars_9 <= 0
 cc_alt_vars_7 <= 0
 cc_alt_vars_19 <= 0
 cc_alt_vars_2 <= 0
 cc_alt_vars_6 <= 0
 cc_alt_vars_3 <= 0
 cc_alt_vars_13 <= 0
 cc_alt_vars_14 <= 0
 cc_alt_vars_16 <= 0
 cc_alt_vars_21 <= 0
 cc_alt_vars_5 <= 0
 cc_alt_vars_10 <= 0
 cc_alt_vars_17 <= 0
Scenario 450
Bounds
 cc_alt_vars_22 <= 0
 cc_alt_vars_20 <= 0
 cc_alt_vars_9 <= 0
 cc_alt_vars_7 <= 0
 cc_alt_vars_19 <= 0
 cc_alt_vars_2 <= 0
 cc_alt_vars_0 <= 0
 cc_alt_vars_6 <= 0
 cc_alt_vars_3 <= 0
 cc_alt_vars_13 <= 0
 cc_alt_vars_14 <= 0
 cc_alt_vars_16 <= 0
 cc_alt_vars_21 <= 0
 cc_alt_vars_5 <= 0
 cc_alt_vars_10 <= 0
 cc_alt_vars_17 <= 0
Scenario 451
Bounds
 cc_alt_vars_1 <= 0
 cc_alt_vars_22 <= 0
 cc_alt_vars_20 <= 0
 cc_alt_vars_9 <= 0
 cc_alt_vars_7 <= 0
 cc_alt_vars_19 <= 0
 cc_alt_vars_0 <= 0
 cc_alt_vars_6 <= 0
 cc_alt_vars_3 <= 0
 cc_alt_vars_13 <= 0
 cc_alt_vars_14 <= 0
 cc_alt_vars_16 <= 0
 cc_alt_vars_21 <= 0
 cc_alt_vars_5 <= 0
 cc_alt_vars_10 <= 0
 cc_alt_vars_17 <= 0
Scenario 452
Bounds
 cc_alt_vars_1 <= 0
 cc_alt_vars_22 <= 0
 cc_alt_vars_20 <= 0
 cc_alt_vars_9 <= 0
 cc_alt_vars_7 <= 0
 cc_alt_vars_19 <= 0
 cc_alt_vars_2 <= 0
 cc_alt_vars_6 <= 0
 cc_alt_vars_3 <= 0
 cc_alt_vars_13 <= 0
 cc_alt_vars_14 <= 0
 cc_alt_vars_16 <= 0
 cc_alt_vars_21 <= 0
 cc_alt_vars_4 <= 0
 cc_alt_vars_10 <= 0
 cc_alt_vars_17 <= 0
Scenario 453
Bounds
 cc_alt_vars_22 <= 0
 cc_alt_vars_20 <= 0
 cc_alt_vars_9 <= 0
 cc_alt_vars_7 <= 0
 cc_alt_vars_19 <= 0
 cc_alt_vars_2 <= 0
 cc_alt_vars_0 <= 0
 cc_alt_vars_6 <= 0
 cc_alt_vars_3 <= 0
 cc_alt_vars_13 <= 0
 cc_alt_vars_14 <= 0
 cc_alt_vars_16 <= 0
 cc_alt_vars_21 <= 0
 cc_alt_vars_4 <= 0
 cc_alt_vars_10 <= 0
 cc_alt_vars_17 <= 0
Scenario 454
Bounds
 cc_alt_vars_1 <= 0
 cc_alt_vars_22 <= 0
 cc_alt_vars_20 <= 0
 cc_alt_vars_9 <= 0
 cc_alt_vars_7 <= 0
 cc_alt_vars_19 <= 0
 cc_alt_vars_0 <= 0
 cc_alt_vars_6 <= 0
 cc_alt_vars_3 <= 0
 cc_alt_vars_13 <= 0
 cc_alt_vars_14 <= 0
 cc_alt_vars_16 <= 0
 cc_alt_vars_21 <= 0
 cc_alt_vars_4 <= 0
 cc_alt_vars_10 <= 0
 cc_alt_vars_17 <= 0
Scenario 455
Bounds
 cc_alt_vars_1 <= 0
 cc_alt_vars_22 <= 0
 cc_alt_vars_20 <= 0
 cc_alt_vars_8 <= 0
 cc_alt_vars_7 <= 0
 cc_alt_vars_19 <= 0
 cc_alt_vars_2 <= 0
 cc_alt_vars_14 <= 0
 cc_alt_vars_16 <= 0
 cc_alt_vars_21 <= 0
 cc_alt_vars_11 <= 0
 cc_alt_vars_4 <= 0
 cc_alt_vars_12 <= 0
 cc_alt_vars_5 <= 0
 cc_alt_vars_10 <= 0
 cc_alt_vars_17 <= 0
Scenario 456
Bounds
 cc_alt_vars_22 <= 0
 cc_alt_vars_20 <= 0
 cc_alt_vars_8 <= 0
 cc_alt_vars_7 <= 0
 cc_alt_vars_19 <= 0
 cc_alt_vars_2 <= 0
 cc_alt_vars_0 <= 0
 cc_alt_vars_14 <= 0
 cc_alt_vars_16 <= 0
 cc_alt_vars_21 <= 0
 cc_alt_vars_11 <= 0
 cc_alt_vars_4 <= 0
 cc_alt_vars_12 <= 0
 cc_alt_vars_5 <= 0
 cc_alt_vars_10 <= 0
 cc_alt_vars_17 <= 0
Scenario 457
Bounds
 cc_alt_vars_1 <= 0
 cc_alt_vars_22 <= 0
 cc_alt_vars_20 <= 0
 cc_alt_vars_8 <= 0
 cc_alt_vars_7 <= 0
 cc_alt_vars_19 <= 0
 cc_alt_vars_0 <= 0
 cc_alt_vars_14 <= 0
 cc_alt_vars_16 <= 0
 cc_alt_vars_21 <= 0
 cc_alt_vars_11 <= 0
 cc_alt_vars_4 <= 0
 cc_alt_vars_12 <= 0
 cc_alt_vars_5 <= 0
 cc_alt_vars_10 <= 0
 cc_alt_vars_17 <= 0
Scenario 458
Bounds
 cc_alt_vars_1 <= 0
 cc_alt_vars_22 <= 0
 cc_alt_vars_20 <= 0
 cc_alt_vars_8 <= 0
 cc_alt_vars_7 <= 0
 cc_alt_vars_19 <= 0
 cc_alt_vars_2 <= 0
 cc_alt_vars_3 <= 0
 cc_alt_vars_14 <= 0
 cc_alt_vars_16 <= 0
 cc_alt_vars_21 <= 0
 cc_alt_vars_11 <= 0
 cc_alt_vars_12 <= 0
 cc_alt_vars_5 <= 0
 cc_alt_vars_10 <= 0
 cc_alt_vars_17 <= 0
Scenario 459
Bounds
 cc_alt_vars_22 <= 0
 cc_alt_vars_20 <= 0
 cc_alt_vars_8 <= 0
 cc_alt_vars_7 <= 0
 cc_alt_vars_19 <= 0
 cc_alt_vars_2 <= 0
 cc_alt_vars_0 <= 0
 cc_alt_vars_3 <= 0
 cc_alt_vars_14 <= 0
 cc_alt_vars_16 <= 0
 cc_alt_vars_21 <= 0
 cc_alt_vars_11 <= 0
 cc_alt_vars_12 <= 0
 cc_alt_vars_5 <= 0
 cc_alt_vars_10 <= 0
 cc_alt_vars_17 <= 0
Scenario 460
Bounds
 cc_alt_vars_1 <= 0
 cc_alt_vars_22 <= 0
 cc_alt_vars_20 <= 0
 cc_alt_vars_8 <= 0
 cc_alt_vars_7 <= 0
 cc_alt_vars_19 <= 0
 cc_alt_vars_0 <= 0
 cc_alt_vars_3 <= 0
 cc_alt_vars_14 <= 0
 cc_alt_vars_16 <= 0
 cc_alt_vars_21 <= 0
 cc_alt_vars_11 <= 0
 cc_alt_vars_12 <= 0
 cc_alt_vars_5 <= 0
 cc_alt_vars_10 <= 0
 cc_alt_vars_17 <= 0
Scenario 461
Bounds
 cc_alt_vars_1 <= 0
 cc_alt_vars_22 <= 0
 cc_alt_vars_20 <= 0
 cc_alt_vars_8 <= 0
 cc_alt_vars_7 <= 0
 cc_alt_vars_19 <= 0
 cc_alt_vars_2 <= 0
 cc_alt_vars_3 <= 0
 cc_alt_vars_14 <= 0
 cc_alt_vars_16 <= 0
 cc_alt_vars_21 <= 0
 cc_alt_vars_11 <= 0
 cc_alt_vars_4 <= 0
 cc_alt_vars_12 <= 0
 cc_alt_vars_10 <= 0
 cc_alt_vars_17 <= 0
Scenario 462
Bounds
 cc_alt_vars_22 <= 0
 cc_alt_vars_20 <= 0
 cc_alt_vars_8 <= 0
 cc_alt_vars_7 <= 0
 cc_alt_vars_19 <= 0
 cc_alt_vars_2 <= 0
 cc_alt_vars_0 <= 0
 cc_alt_vars_3 <= 0
 cc_alt_vars_14 <= 0
 cc_alt_vars_16 <= 0
 cc_alt_vars_21 <= 0
 cc_alt_vars_11 <= 0
 cc_alt_vars_4 <= 0
 cc_alt_vars_12 <= 0
 cc_alt_vars_10 <= 0
 cc_alt_vars_17 <= 0
Scenario 463
Bounds
 cc_alt_vars_1 <= 0
 cc_alt_vars_22 <= 0
 cc_alt_vars_20 <= 0
 cc_alt_vars_8 <= 0
 cc_alt_vars_7 <= 0
 cc_alt_vars_19 <= 0
 cc_alt_vars_0 <= 0
 cc_alt_vars_3 <= 0
 cc_alt_vars_14 <= 0
 cc_alt_vars_16 <= 0
 cc_alt_vars_21 <= 0
 cc_alt_vars_11 <= 0
 cc_alt_vars_4 <= 0
 cc_alt_vars_12 <= 0
 cc_alt_vars_10 <= 0
 cc_alt_vars_17 <= 0
Scenario 464
Bounds
 cc_alt_vars_1 <= 0
 cc_alt_vars_22 <= 0
 cc_alt_vars_20 <= 0
 cc_alt_vars_8 <= 0
 cc_alt_vars_19 <= 0
 cc_alt_vars_2 <= 0
 cc_alt_vars_6 <= 0
 cc_alt_vars_14 <= 0
 cc_alt_vars_16 <= 0
 cc_alt_vars_21 <= 0
 cc_alt_vars_11 <= 0
 cc_alt_vars_4 <= 0
 cc_alt_vars_12 <= 0
 cc_alt_vars_5 <= 0
 cc_alt_vars_10 <= 0
 cc_alt_vars_17 <= 0
Scenario 465
Bounds
 cc_alt_vars_22 <= 0
 cc_alt_vars_20 <= 0
 cc_alt_vars_8 <= 0
 cc_alt_vars_19 <= 0
 cc_alt_vars_2 <= 0
 cc_alt_vars_0 <= 0
 cc_alt_vars_6 <= 0
 cc_alt_vars_14 <= 0
 cc_alt_vars_16 <= 0
 cc_alt_vars_21 <= 0
 cc_alt_vars_11 <= 0
 cc_alt_vars_4 <= 0
 cc_alt_vars_12 <= 0
 cc_alt_vars_5 <= 0
 cc_alt_vars_10 <= 0
 cc_alt_vars_17 <= 0
Scenario 466
Bounds
 cc_alt_vars_1 <= 0
 cc_alt_vars_22 <= 0
 cc_alt_vars_20 <= 0
 cc_alt_vars_8 <= 0
 cc_alt_vars_19 <= 0
 cc_alt_vars_0 <= 0
 cc_alt_vars_6 <= 0
 cc_alt_vars_14 <= 0
 cc_alt_vars_16 <= 0
 cc_alt_vars_21 <= 0
 cc_alt_vars_11 <= 0
 cc_alt_vars_4 <= 0
 cc_alt_vars_12 <= 0
 cc_alt_vars_5 <= 0
 cc_alt_vars_10 <= 0
 cc_alt_vars_17 <= 0
Scenario 467
Bounds
 cc_alt_vars_1 <= 0
 cc_alt_vars_22 <= 0
 cc_alt_vars_20 <= 0
 cc_alt_vars_8 <= 0
 cc_alt_vars_19 <= 0
 cc_alt_vars_2 <= 0
 cc_alt_vars_6 <= 0
 cc_alt_vars_3 <= 0
 cc_alt_vars_14 <= 0
 cc_alt_vars_16 <= 0
 cc_alt_vars_21 <= 0
 cc_alt_vars_11 <= 0
 cc_alt_vars_12 <= 0
 cc_alt_vars_5 <= 0
 cc_alt_vars_10 <= 0
 cc_alt_vars_17 <= 0
Scenario 468
Bounds
 cc_alt_vars_22 <= 0
 cc_alt_vars_20 <= 0
 cc_alt_vars_8 <= 0
 cc_alt_vars_19 <= 0
 cc_alt_vars_2 <= 0
 cc_alt_vars_0 <= 0
 cc_alt_vars_6 <= 0
 cc_alt_vars_3 <= 0
 cc_alt_vars_14 <= 0
 cc_alt_vars_16 <= 0
 cc_alt_vars_21 <= 0
 cc_alt_vars_11 <= 0
 cc_alt_vars_12 <= 0
 cc_alt_vars_5 <= 0
 cc_alt_vars_10 <= 0
 cc_alt_vars_17 <= 0
Scenario 469
Bounds
 cc_alt_vars_1 <= 0
 cc_alt_vars_22 <= 0
 cc_alt_vars_20 <= 0
 cc_alt_vars_8 <= 0
 cc_alt_vars_19 <= 0
 cc_alt_vars_0 <= 0
 cc_alt_vars_6 <= 0
 cc_alt_vars_3 <= 0
 cc_alt_vars_14 <= 0
 cc_alt_vars_16 <= 0
 cc_alt_vars_21 <= 0
 cc_alt_vars_11 <= 0
 cc_alt_vars_12 <= 0
 cc_alt_vars_5 <= 0
 cc_alt_vars_10 <= 0
 cc_alt_vars_17 <= 0
Scenario 470
Bounds
 cc_alt_vars_1 <= 0
 cc_alt_vars_22 <= 0
 cc_alt_vars_20 <= 0
 cc_alt_vars_8 <= 0
 cc_alt_vars_19 <= 0
 cc_alt_vars_2 <= 0
 cc_alt_vars_6 <= 0
 cc_alt_vars_3 <= 0
 cc_alt_vars_14 <= 0
 cc_alt_vars_16 <= 0
 cc_alt_vars_21 <= 0
 cc_alt_vars_11 <= 0
 cc_alt_vars_4 <= 0
 cc_alt_vars_12 <= 0
 cc_alt_vars_10 <= 0
 cc_alt_vars_17 <= 0
Scenario 471
Bounds
 cc_alt_vars_22 <= 0
 cc_alt_vars_20 <= 0
 cc_alt_vars_8 <= 0
 cc_alt_vars_19 <= 0
 cc_alt_vars_2 <= 0
 cc_alt_vars_0 <= 0
 cc_alt_vars_6 <= 0
 cc_alt_vars_3 <= 0
 cc_alt_vars_14 <= 0
 cc_alt_vars_16 <= 0
 cc_alt_vars_21 <= 0
 cc_alt_vars_11 <= 0
 cc_alt_vars_4 <= 0
 cc_alt_vars_12 <= 0
 cc_alt_vars_10 <= 0
 cc_alt_vars_17 <= 0
Scenario 472
Bounds
 cc_alt_vars_1 <= 0
 cc_alt_vars_22 <= 0
 cc_alt_vars_20 <= 0
 cc_alt_vars_8 <= 0
 cc_alt_vars_19 <= 0
 cc_alt_vars_0 <= 0
 cc_alt_vars_6 <= 0
 cc_alt_vars_3 <= 0
 cc_alt_vars_14 <= 0
 cc_alt_vars_16 <= 0
 cc_alt_vars_21 <= 0
 cc_alt_vars_11 <= 0
 cc_alt_vars_4 <= 0
 cc_alt_vars_12 <= 0
 cc_alt_vars_10 <= 0
 cc_alt_vars_17 <= 0
Scenario 473
Bounds
 cc_alt_vars_1 <= 0
 cc_alt_vars_22 <= 0
 cc_alt_vars_20 <= 0
 cc_alt_vars_7 <= 0
 cc_alt_vars_19 <= 0
 cc_alt_vars_2 <= 0
 cc_alt_vars_6 <= 0
 cc_alt_vars_14 <= 0
 cc_alt_vars_16 <= 0
 cc_alt_vars_21 <= 0
 cc_alt_vars_11 <= 0
 cc_alt_vars_4 <= 0
 cc_alt_vars_12 <= 0
 cc_alt_vars_5 <= 0
 cc_alt_vars_10 <= 0
 cc_alt_vars_17 <= 0
Scenario 474
Bounds
 cc_alt_vars_22 <= 0
 cc_alt_vars_20 <= 0
 cc_alt_vars_7 <= 0
 cc_alt_vars_19 <= 0
 cc_alt_vars_2 <= 0
 cc_alt_vars_0 <= 0
 cc_alt_vars_6 <= 0
 cc_alt_vars_14 <= 0
 cc_alt_vars_16 <= 0
 cc_alt_vars_21 <= 0
 cc_alt_vars_11 <= 0
 cc_alt_vars_4 <= 0
 cc_alt_vars_12 <= 0
 cc_alt_vars_5 <= 0
 cc_alt_vars_10 <= 0
 cc_alt_vars_17 <= 0
Scenario 475
Bounds
 cc_alt_vars_1 <= 0
 cc_alt_vars_22 <= 0
 cc_alt_vars_20 <= 0
 cc_alt_vars_7 <= 0
 cc_alt_vars_19 <= 0
 cc_alt_vars_0 <= 0
 cc_alt_vars_6 <= 0
 cc_alt_vars_14 <= 0
 cc_alt_vars_16 <= 0
 cc_alt_vars_21 <= 0
 cc_alt_vars_11 <= 0
 cc_alt_vars_4 <= 0
 cc_alt_vars_12 <= 0
 cc_alt_vars_5 <= 0
 cc_alt_vars_10 <= 0
 cc_alt_vars_17 <= 0
Scenario 476
Bounds
 cc_alt_vars_1 <= 0
 cc_alt_vars_22 <= 0
 cc_alt_vars_20 <= 0
 cc_alt_vars_7 <= 0
 cc_alt_vars_19 <= 0
 cc_alt_vars_2 <= 0
 cc_alt_vars_6 <= 0
 cc_alt_vars_3 <= 0
 cc_alt_vars_14 <= 0
 cc_alt_vars_16 <= 0
 cc_alt_vars_21 <= 0
 cc_alt_vars_11 <= 0
 cc_alt_vars_12 <= 0
 cc_alt_vars_5 <= 0
 cc_alt_vars_10 <= 0
 cc_alt_vars_17 <= 0
Scenario 477
Bounds
 cc_alt_vars_22 <= 0
 cc_alt_vars_20 <= 0
 cc_alt_vars_7 <= 0
 cc_alt_vars_19 <= 0
 cc_alt_vars_2 <= 0
 cc_alt_vars_0 <= 0
 cc_alt_vars_6 <= 0
 cc_alt_vars_3 <= 0
 cc_alt_vars_14 <= 0
 cc_alt_vars_16 <= 0
 cc_alt_vars_21 <= 0
 cc_alt_vars_11 <= 0
 cc_alt_vars_12 <= 0
 cc_alt_vars_5 <= 0
 cc_alt_vars_10 <= 0
 cc_alt_vars_17 <= 0
Scenario 478
Bounds
 cc_alt_vars_1 <= 0
 cc_alt_vars_22 <= 0
 cc_alt_vars_20 <= 0
 cc_alt_vars_7 <= 0
 cc_alt_vars_19 <= 0
 cc_alt_vars_0 <= 0
 cc_alt_vars_6 <= 0
 cc_alt_vars_3 <= 0
 cc_alt_vars_14 <= 0
 cc_alt_vars_16 <= 0
 cc_alt_vars_21 <= 0
 cc_alt_vars_11 <= 0
 cc_alt_vars_12 <= 0
 cc_alt_vars_5 <= 0
 cc_alt_vars_10 <= 0
 cc_alt_vars_17 <= 0
Scenario 479
Bounds
 cc_alt_vars_1 <= 0
 cc_alt_vars_22 <= 0
 cc_alt_vars_20 <= 0
 cc_alt_vars_7 <= 0
 cc_alt_vars_19 <= 0
 cc_alt_vars_2 <= 0
 cc_alt_vars_6 <= 0
 cc_alt_vars_3 <= 0
 cc_alt_vars_14 <= 0
 cc_alt_vars_16 <= 0
 cc_alt_vars_21 <= 0
 cc_alt_vars_11 <= 0
 cc_alt_vars_4 <= 0
 cc_alt_vars_12 <= 0
 cc_alt_vars_10 <= 0
 cc_alt_vars_17 <= 0
Scenario 480
Bounds
 cc_alt_vars_22 <= 0
 cc_alt_vars_20 <= 0
 cc_alt_vars_7 <= 0
 cc_alt_vars_19 <= 0
 cc_alt_vars_2 <= 0
 cc_alt_vars_0 <= 0
 cc_alt_vars_6 <= 0
 cc_alt_vars_3 <= 0
 cc_alt_vars_14 <= 0
 cc_alt_vars_16 <= 0
 cc_alt_vars_21 <= 0
 cc_alt_vars_11 <= 0
 cc_alt_vars_4 <= 0
 cc_alt_vars_12 <= 0
 cc_alt_vars_10 <= 0
 cc_alt_vars_17 <= 0
Scenario 481
Bounds
 cc_alt_vars_1 <= 0
 cc_alt_vars_22 <= 0
 cc_alt_vars_20 <= 0
 cc_alt_vars_7 <= 0
 cc_alt_vars_19 <= 0
 cc_alt_vars_0 <= 0
 cc_alt_vars_6 <= 0
 cc_alt_vars_3 <= 0
 cc_alt_vars_14 <= 0
 cc_alt_vars_16 <= 0
 cc_alt_vars_21 <= 0
 cc_alt_vars_11 <= 0
 cc_alt_vars_4 <= 0
 cc_alt_vars_12 <= 0
 cc_alt_vars_10 <= 0
 cc_alt_vars_17 <= 0
Scenario 482
Bounds
 cc_alt_vars_1 <= 0
 cc_alt_vars_22 <= 0
 cc_alt_vars_20 <= 0
 cc_alt_vars_9 <= 0
 cc_alt_vars_8 <= 0
 cc_alt_vars_7 <= 0
 cc_alt_vars_19 <= 0
 cc_alt_vars_2 <= 0
 cc_alt_vars_14 <= 0
 cc_alt_vars_16 <= 0
 cc_alt_vars_21 <= 0
 cc_alt_vars_11 <= 0
 cc_alt_vars_4 <= 0
 cc_alt_vars_12 <= 0
 cc_alt_vars_5 <= 0
 cc_alt_vars_17 <= 0
Scenario 483
Bounds
 cc_alt_vars_22 <= 0
 cc_alt_vars_20 <= 0
 cc_alt_vars_9 <= 0
 cc_alt_vars_8 <= 0
 cc_alt_vars_7 <= 0
 cc_alt_vars_19 <= 0
 cc_alt_vars_2 <= 0
 cc_alt_vars_0 <= 0
 cc_alt_vars_14 <= 0
 cc_alt_vars_16 <= 0
 cc_alt_vars_21 <= 0
 cc_alt_vars_11 <= 0
 cc_alt_vars_4 <= 0
 cc_alt_vars_12 <= 0
 cc_alt_vars_5 <= 0
 cc_alt_vars_17 <= 0
Scenario 484
Bounds
 cc_alt_vars_1 <= 0
 cc_alt_vars_22 <= 0
 cc_alt_vars_20 <= 0
 cc_alt_vars_9 <= 0
 cc_alt_vars_8 <= 0
 cc_alt_vars_7 <= 0
 cc_alt_vars_19 <= 0
 cc_alt_vars_0 <= 0
 cc_alt_vars_14 <= 0
 cc_alt_vars_16 <= 0
 cc_alt_vars_21 <= 0
 cc_alt_vars_11 <= 0
 cc_alt_vars_4 <= 0
 cc_alt_vars_12 <= 0
 cc_alt_vars_5 <= 0
 cc_alt_vars_17 <= 0
Scenario 485
Bounds
 cc_alt_vars_1 <= 0
 cc_alt_vars_22 <= 0
 cc_alt_vars_20 <= 0
 cc_alt_vars_9 <= 0
 cc_alt_vars_8 <= 0
 cc_alt_vars_7 <= 0
 cc_alt_vars_19 <= 0
 cc_alt_vars_2 <= 0
 cc_alt_vars_3 <= 0
 cc_alt_vars_14 <= 0
 cc_alt_vars_16 <= 0
 cc_alt_vars_21 <= 0
 cc_alt_vars_11 <= 0
 cc_alt_vars_12 <= 0
 cc_alt_vars_5 <= 0
 cc_alt_vars_17 <= 0
Scenario 486
Bounds
 cc_alt_vars_22 <= 0
 cc_alt_vars_20 <= 0
 cc_alt_vars_9 <= 0
 cc_alt_vars_8 <= 0
 cc_alt_vars_7 <= 0
 cc_alt_vars_19 <= 0
 cc_alt_vars_2 <= 0
 cc_alt_vars_0 <= 0
 cc_alt_vars_3 <= 0
 cc_alt_vars_14 <= 0
 cc_alt_vars_16 <= 0
 cc_alt_vars_21 <= 0
 cc_alt_vars_11 <= 0
 cc_alt_vars_12 <= 0
 cc_alt_vars_5 <= 0
 cc_alt_vars_17 <= 0
Scenario 487
Bounds
 cc_alt_vars_1 <= 0
 cc_alt_vars_22 <= 0
 cc_alt_vars_20 <= 0
 cc_alt_vars_9 <= 0
 cc_alt_vars_8 <= 0
 cc_alt_vars_7 <= 0
 cc_alt_vars_19 <= 0
 cc_alt_vars_0 <= 0
 cc_alt_vars_3 <= 0
 cc_alt_vars_14 <= 0
 cc_alt_vars_16 <= 0
 cc_alt_vars_21 <= 0
 cc_alt_vars_11 <= 0
 cc_alt_vars_12 <= 0
 cc_alt_vars_5 <= 0
 cc_alt_vars_17 <= 0
Scenario 488
Bounds
 cc_alt_vars_1 <= 0
 cc_alt_vars_22 <= 0
 cc_alt_vars_20 <= 0
 cc_alt_vars_9 <= 0
 cc_alt_vars_8 <= 0
 cc_alt_vars_7 <= 0
 cc_alt_vars_19 <= 0
 cc_alt_vars_2 <= 0
 cc_alt_vars_3 <= 0
 cc_alt_vars_14 <= 0
 cc_alt_vars_16 <= 0
 cc_alt_vars_21 <= 0
 cc_alt_vars_11 <= 0
 cc_alt_vars_4 <= 0
 cc_alt_vars_12 <= 0
 cc_alt_vars_17 <= 0
Scenario 489
Bounds
 cc_alt_vars_22 <= 0
 cc_alt_vars_20 <= 0
 cc_alt_vars_9 <= 0
 cc_alt_vars_8 <= 0
 cc_alt_vars_7 <= 0
 cc_alt_vars_19 <= 0
 cc_alt_vars_2 <= 0
 cc_alt_vars_0 <= 0
 cc_alt_vars_3 <= 0
 cc_alt_vars_14 <= 0
 cc_alt_vars_16 <= 0
 cc_alt_vars_21 <= 0
 cc_alt_vars_11 <= 0
 cc_alt_vars_4 <= 0
 cc_alt_vars_12 <= 0
 cc_alt_vars_17 <= 0
Scenario 490
Bounds
 cc_alt_vars_1 <= 0
 cc_alt_vars_22 <= 0
 cc_alt_vars_20 <= 0
 cc_alt_vars_9 <= 0
 cc_alt_vars_8 <= 0
 cc_alt_vars_7 <= 0
 cc_alt_vars_19 <= 0
 cc_alt_vars_0 <= 0
 cc_alt_vars_3 <= 0
 cc_alt_vars_14 <= 0
 cc_alt_vars_16 <= 0
 cc_alt_vars_21 <= 0
 cc_alt_vars_11 <= 0
 cc_alt_vars_4 <= 0
 cc_alt_vars_12 <= 0
 cc_alt_vars_17 <= 0
Scenario 491
Bounds
 cc_alt_vars_1 <= 0
 cc_alt_vars_22 <= 0
 cc_alt_vars_20 <= 0
 cc_alt_vars_9 <= 0
 cc_alt_vars_8 <= 0
 cc_alt_vars_19 <= 0
 cc_alt_vars_2 <= 0
 cc_alt_vars_6 <= 0
 cc_alt_vars_14 <= 0
 cc_alt_vars_16 <= 0
 cc_alt_vars_21 <= 0
 cc_alt_vars_11 <= 0
 cc_alt_vars_4 <= 0
 cc_alt_vars_12 <= 0
 cc_alt_vars_5 <= 0
 cc_alt_vars_17 <= 0
Scenario 492
Bounds
 cc_alt_vars_22 <= 0
 cc_alt_vars_20 <= 0
 cc_alt_vars_9 <= 0
 cc_alt_vars_8 <= 0
 cc_alt_vars_19 <= 0
 cc_alt_vars_2 <= 0
 cc_alt_vars_0 <= 0
 cc_alt_vars_6 <= 0
 cc_alt_vars_14 <= 0
 cc_alt_vars_16 <= 0
 cc_alt_vars_21 <= 0
 cc_alt_vars_11 <= 0
 cc_alt_vars_4 <= 0
 cc_alt_vars_12 <= 0
 cc_alt_vars_5 <= 0
 cc_alt_vars_17 <= 0
Scenario 493
Bounds
 cc_alt_vars_1 <= 0
 cc_alt_vars_22 <= 0
 cc_alt_vars_20 <= 0
 cc_alt_vars_9 <= 0
 cc_alt_vars_8 <= 0
 cc_alt_vars_19 <= 0
 cc_alt_vars_0 <= 0
 cc_alt_vars_6 <= 0
 cc_alt_vars_14 <= 0
 cc_alt_vars_16 <= 0
 cc_alt_vars_21 <= 0
 cc_alt_vars_11 <= 0
 cc_alt_vars_4 <= 0
 cc_alt_vars_12 <= 0
 cc_alt_vars_5 <= 0
 cc_alt_vars_17 <= 0
Scenario 494
Bounds
 cc_alt_vars_1 <= 0
 cc_alt_vars_22 <= 0
 cc_alt_vars_20 <= 0
 cc_alt_vars_9 <= 0
 cc_alt_vars_8 <= 0
 cc_alt_vars_19 <= 0
 cc_alt_vars_2 <= 0
 cc_alt_vars_6 <= 0
 cc_alt_vars_3 <= 0
 cc_alt_vars_14 <= 0
 cc_alt_vars_16 <= 0
 cc_alt_vars_21 <= 0
 cc_alt_vars_11 <= 0
 cc_alt_vars_12 <= 0
 cc_alt_vars_5 <= 0
 cc_alt_vars_17 <= 0
Scenario 495
Bounds
 cc_alt_vars_22 <= 0
 cc_alt_vars_20 <= 0
 cc_alt_vars_9 <= 0
 cc_alt_vars_8 <= 0
 cc_alt_vars_19 <= 0
 cc_alt_vars_2 <= 0
 cc_alt_vars_0 <= 0
 cc_alt_vars_6 <= 0
 cc_alt_vars_3 <= 0
 cc_alt_vars_14 <= 0
 cc_alt_vars_16 <= 0
 cc_alt_vars_21 <= 0
 cc_alt_vars_11 <= 0
 cc_alt_vars_12 <= 0
 cc_alt_vars_5 <= 0
 cc_alt_vars_17 <= 0
Scenario 496
Bounds
 cc_alt_vars_1 <= 0
 cc_alt_vars_22 <= 0
 cc_alt_vars_20 <= 0
 cc_alt_vars_9 <= 0
 cc_alt_vars_8 <= 0
 cc_alt_vars_19 <= 0
 cc_alt_vars_0 <= 0
 cc_alt_vars_6 <= 0
 cc_alt_vars_3 <= 0
 cc_alt_vars_14 <= 0
 cc_alt_vars_16 <= 0
 cc_alt_vars_21 <= 0
 cc_alt_vars_11 <= 0
 cc_alt_vars_12 <= 0
 cc_alt_vars_5 <= 0
 cc_alt_vars_17 <= 0
Scenario 497
Bounds
 cc_alt_vars_1 <= 0
 cc_alt_vars_22 <= 0
 cc_alt_vars_20 <= 0
 cc_alt_vars_9 <= 0
 cc_alt_vars_8 <= 0
 cc_alt_vars_19 <= 0
 cc_alt_vars_2 <= 0
 cc_alt_vars_6 <= 0
 cc_alt_vars_3 <= 0
 cc_alt_vars_14 <= 0
 cc_alt_vars_16 <= 0
 cc_alt_vars_21 <= 0
 cc_alt_vars_11 <= 0
 cc_alt_vars_4 <= 0
 cc_alt_vars_12 <= 0
 cc_alt_vars_17 <= 0
Scenario 498
Bounds
 cc_alt_vars_22 <= 0
 cc_alt_vars_20 <= 0
 cc_alt_vars_9 <= 0
 cc_alt_vars_8 <= 0
 cc_alt_vars_19 <= 0
 cc_alt_vars_2 <= 0
 cc_alt_vars_0 <= 0
 cc_alt_vars_6 <= 0
 cc_alt_vars_3 <= 0
 cc_alt_vars_14 <= 0
 cc_alt_vars_16 <= 0
 cc_alt_vars_21 <= 0
 cc_alt_vars_11 <= 0
 cc_alt_vars_4 <= 0
 cc_alt_vars_12 <= 0
 cc_alt_vars_17 <= 0
Scenario 499
Bounds
 cc_alt_vars_1 <= 0
 cc_alt_vars_22 <= 0
 cc_alt_vars_20 <= 0
 cc_alt_vars_9 <= 0
 cc_alt_vars_8 <= 0
 cc_alt_vars_19 <= 0
 cc_alt_vars_0 <= 0
 cc_alt_vars_6 <= 0
 cc_alt_vars_3 <= 0
 cc_alt_vars_14 <= 0
 cc_alt_vars_16 <= 0
 cc_alt_vars_21 <= 0
 cc_alt_vars_11 <= 0
 cc_alt_vars_4 <= 0
 cc_alt_vars_12 <= 0
 cc_alt_vars_17 <= 0
Scenario 500
Bounds
 cc_alt_vars_1 <= 0
 cc_alt_vars_22 <= 0
 cc_alt_vars_20 <= 0
 cc_alt_vars_9 <= 0
 cc_alt_vars_7 <= 0
 cc_alt_vars_19 <= 0
 cc_alt_vars_2 <= 0
 cc_alt_vars_6 <= 0
 cc_alt_vars_14 <= 0
 cc_alt_vars_16 <= 0
 cc_alt_vars_21 <= 0
 cc_alt_vars_11 <= 0
 cc_alt_vars_4 <= 0
 cc_alt_vars_12 <= 0
 cc_alt_vars_5 <= 0
 cc_alt_vars_17 <= 0
Scenario 501
Bounds
 cc_alt_vars_22 <= 0
 cc_alt_vars_20 <= 0
 cc_alt_vars_9 <= 0
 cc_alt_vars_7 <= 0
 cc_alt_vars_19 <= 0
 cc_alt_vars_2 <= 0
 cc_alt_vars_0 <= 0
 cc_alt_vars_6 <= 0
 cc_alt_vars_14 <= 0
 cc_alt_vars_16 <= 0
 cc_alt_vars_21 <= 0
 cc_alt_vars_11 <= 0
 cc_alt_vars_4 <= 0
 cc_alt_vars_12 <= 0
 cc_alt_vars_5 <= 0
 cc_alt_vars_17 <= 0
Scenario 502
Bounds
 cc_alt_vars_1 <= 0
 cc_alt_vars_22 <= 0
 cc_alt_vars_20 <= 0
 cc_alt_vars_9 <= 0
 cc_alt_vars_7 <= 0
 cc_alt_vars_19 <= 0
 cc_alt_vars_0 <= 0
 cc_alt_vars_6 <= 0
 cc_alt_vars_14 <= 0
 cc_alt_vars_16 <= 0
 cc_alt_vars_21 <= 0
 cc_alt_vars_11 <= 0
 cc_alt_vars_4 <= 0
 cc_alt_vars_12 <= 0
 cc_alt_vars_5 <= 0
 cc_alt_vars_17 <= 0
Scenario 503
Bounds
 cc_alt_vars_1 <= 0
 cc_alt_vars_22 <= 0
 cc_alt_vars_20 <= 0
 cc_alt_vars_9 <= 0
 cc_alt_vars_7 <= 0
 cc_alt_vars_19 <= 0
 cc_alt_vars_2 <= 0
 cc_alt_vars_6 <= 0
 cc_alt_vars_3 <= 0
 cc_alt_vars_14 <= 0
 cc_alt_vars_16 <= 0
 cc_alt_vars_21 <= 0
 cc_alt_vars_11 <= 0
 cc_alt_vars_12 <= 0
 cc_alt_vars_5 <= 0
 cc_alt_vars_17 <= 0
Scenario 504
Bounds
 cc_alt_vars_22 <= 0
 cc_alt_vars_20 <= 0
 cc_alt_vars_9 <= 0
 cc_alt_vars_7 <= 0
 cc_alt_vars_19 <= 0
 cc_alt_vars_2 <= 0
 cc_alt_vars_0 <= 0
 cc_alt_vars_6 <= 0
 cc_alt_vars_3 <= 0
 cc_alt_vars_14 <= 0
 cc_alt_vars_16 <= 0
 cc_alt_vars_21 <= 0
 cc_alt_vars_11 <= 0
 cc_alt_vars_12 <= 0
 cc_alt_vars_5 <= 0
 cc_alt_vars_17 <= 0
Scenario 505
Bounds
 cc_alt_vars_1 <= 0
 cc_alt_vars_22 <= 0
 cc_alt_vars_20 <= 0
 cc_alt_vars_9 <= 0
 cc_alt_vars_7 <= 0
 cc_alt_vars_19 <= 0
 cc_alt_vars_0 <= 0
 cc_alt_vars_6 <= 0
 cc_alt_vars_3 <= 0
 cc_alt_vars_14 <= 0
 cc_alt_vars_16 <= 0
 cc_alt_vars_21 <= 0
 cc_alt_vars_11 <= 0
 cc_alt_vars_12 <= 0
 cc_alt_vars_5 <= 0
 cc_alt_vars_17 <= 0
Scenario 506
Bounds
 cc_alt_vars_1 <= 0
 cc_alt_vars_22 <= 0
 cc_alt_vars_20 <= 0
 cc_alt_vars_9 <= 0
 cc_alt_vars_7 <= 0
 cc_alt_vars_19 <= 0
 cc_alt_vars_2 <= 0
 cc_alt_vars_6 <= 0
 cc_alt_vars_3 <= 0
 cc_alt_vars_14 <= 0
 cc_alt_vars_16 <= 0
 cc_alt_vars_21 <= 0
 cc_alt_vars_11 <= 0
 cc_alt_vars_4 <= 0
 cc_alt_vars_12 <= 0
 cc_alt_vars_17 <= 0
Scenario 507
Bounds
 cc_alt_vars_22 <= 0
 cc_alt_vars_20 <= 0
 cc_alt_vars_9 <= 0
 cc_alt_vars_7 <= 0
 cc_alt_vars_19 <= 0
 cc_alt_vars_2 <= 0
 cc_alt_vars_0 <= 0
 cc_alt_vars_6 <= 0
 cc_alt_vars_3 <= 0
 cc_alt_vars_14 <= 0
 cc_alt_vars_16 <= 0
 cc_alt_vars_21 <= 0
 cc_alt_vars_11 <= 0
 cc_alt_vars_4 <= 0
 cc_alt_vars_12 <= 0
 cc_alt_vars_17 <= 0
Scenario 508
Bounds
 cc_alt_vars_1 <= 0
 cc_alt_vars_22 <= 0
 cc_alt_vars_20 <= 0
 cc_alt_vars_9 <= 0
 cc_alt_vars_7 <= 0
 cc_alt_vars_19 <= 0
 cc_alt_vars_0 <= 0
 cc_alt_vars_6 <= 0
 cc_alt_vars_3 <= 0
 cc_alt_vars_14 <= 0
 cc_alt_vars_16 <= 0
 cc_alt_vars_21 <= 0
 cc_alt_vars_11 <= 0
 cc_alt_vars_4 <= 0
 cc_alt_vars_12 <= 0
 cc_alt_vars_17 <= 0
Scenario 509
Bounds
 cc_alt_vars_1 <= 0
 cc_alt_vars_22 <= 0
 cc_alt_vars_20 <= 0
 cc_alt_vars_9 <= 0
 cc_alt_vars_8 <= 0
 cc_alt_vars_7 <= 0
 cc_alt_vars_19 <= 0
 cc_alt_vars_2 <= 0
 cc_alt_vars_14 <= 0
 cc_alt_vars_16 <= 0
 cc_alt_vars_21 <= 0
 cc_alt_vars_4 <= 0
 cc_alt_vars_12 <= 0
 cc_alt_vars_5 <= 0
 cc_alt_vars_10 <= 0
 cc_alt_vars_17 <= 0
Scenario 510
Bounds
 cc_alt_vars_22 <= 0
 cc_alt_vars_20 <= 0
 cc_alt_vars_9 <= 0
 cc_alt_vars_8 <= 0
 cc_alt_vars_7 <= 0
 cc_alt_vars_19 <= 0
 cc_alt_vars_2 <= 0
 cc_alt_vars_0 <= 0
 cc_alt_vars_14 <= 0
 cc_alt_vars_16 <= 0
 cc_alt_vars_21 <= 0
 cc_alt_vars_4 <= 0
 cc_alt_vars_12 <= 0
 cc_alt_vars_5 <= 0
 cc_alt_vars_10 <= 0
 cc_alt_vars_17 <= 0
Scenario 511
Bounds
 cc_alt_vars_1 <= 0
 cc_alt_vars_22 <= 0
 cc_alt_vars_20 <= 0
 cc_alt_vars_9 <= 0
 cc_alt_vars_8 <= 0
 cc_alt_vars_7 <= 0
 cc_alt_vars_19 <= 0
 cc_alt_vars_0 <= 0
 cc_alt_vars_14 <= 0
 cc_alt_vars_16 <= 0
 cc_alt_vars_21 <= 0
 cc_alt_vars_4 <= 0
 cc_alt_vars_12 <= 0
 cc_alt_vars_5 <= 0
 cc_alt_vars_10 <= 0
 cc_alt_vars_17 <= 0
Scenario 512
Bounds
 cc_alt_vars_1 <= 0
 cc_alt_vars_22 <= 0
 cc_alt_vars_20 <= 0
 cc_alt_vars_9 <= 0
 cc_alt_vars_8 <= 0
 cc_alt_vars_7 <= 0
 cc_alt_vars_19 <= 0
 cc_alt_vars_2 <= 0
 cc_alt_vars_3 <= 0
 cc_alt_vars_14 <= 0
 cc_alt_vars_16 <= 0
 cc_alt_vars_21 <= 0
 cc_alt_vars_12 <= 0
 cc_alt_vars_5 <= 0
 cc_alt_vars_10 <= 0
 cc_alt_vars_17 <= 0
Scenario 513
Bounds
 cc_alt_vars_22 <= 0
 cc_alt_vars_20 <= 0
 cc_alt_vars_9 <= 0
 cc_alt_vars_8 <= 0
 cc_alt_vars_7 <= 0
 cc_alt_vars_19 <= 0
 cc_alt_vars_2 <= 0
 cc_alt_vars_0 <= 0
 cc_alt_vars_3 <= 0
 cc_alt_vars_14 <= 0
 cc_alt_vars_16 <= 0
 cc_alt_vars_21 <= 0
 cc_alt_vars_12 <= 0
 cc_alt_vars_5 <= 0
 cc_alt_vars_10 <= 0
 cc_alt_vars_17 <= 0
Scenario 514
Bounds
 cc_alt_vars_1 <= 0
 cc_alt_vars_22 <= 0
 cc_alt_vars_20 <= 0
 cc_alt_vars_9 <= 0
 cc_alt_vars_8 <= 0
 cc_alt_vars_7 <= 0
 cc_alt_vars_19 <= 0
 cc_alt_vars_0 <= 0
 cc_alt_vars_3 <= 0
 cc_alt_vars_14 <= 0
 cc_alt_vars_16 <= 0
 cc_alt_vars_21 <= 0
 cc_alt_vars_12 <= 0
 cc_alt_vars_5 <= 0
 cc_alt_vars_10 <= 0
 cc_alt_vars_17 <= 0
Scenario 515
Bounds
 cc_alt_vars_1 <= 0
 cc_alt_vars_22 <= 0
 cc_alt_vars_20 <= 0
 cc_alt_vars_9 <= 0
 cc_alt_vars_8 <= 0
 cc_alt_vars_7 <= 0
 cc_alt_vars_19 <= 0
 cc_alt_vars_2 <= 0
 cc_alt_vars_3 <= 0
 cc_alt_vars_14 <= 0
 cc_alt_vars_16 <= 0
 cc_alt_vars_21 <= 0
 cc_alt_vars_4 <= 0
 cc_alt_vars_12 <= 0
 cc_alt_vars_10 <= 0
 cc_alt_vars_17 <= 0
Scenario 516
Bounds
 cc_alt_vars_22 <= 0
 cc_alt_vars_20 <= 0
 cc_alt_vars_9 <= 0
 cc_alt_vars_8 <= 0
 cc_alt_vars_7 <= 0
 cc_alt_vars_19 <= 0
 cc_alt_vars_2 <= 0
 cc_alt_vars_0 <= 0
 cc_alt_vars_3 <= 0
 cc_alt_vars_14 <= 0
 cc_alt_vars_16 <= 0
 cc_alt_vars_21 <= 0
 cc_alt_vars_4 <= 0
 cc_alt_vars_12 <= 0
 cc_alt_vars_10 <= 0
 cc_alt_vars_17 <= 0
Scenario 517
Bounds
 cc_alt_vars_1 <= 0
 cc_alt_vars_22 <= 0
 cc_alt_vars_20 <= 0
 cc_alt_vars_9 <= 0
 cc_alt_vars_8 <= 0
 cc_alt_vars_7 <= 0
 cc_alt_vars_19 <= 0
 cc_alt_vars_0 <= 0
 cc_alt_vars_3 <= 0
 cc_alt_vars_14 <= 0
 cc_alt_vars_16 <= 0
 cc_alt_vars_21 <= 0
 cc_alt_vars_4 <= 0
 cc_alt_vars_12 <= 0
 cc_alt_vars_10 <= 0
 cc_alt_vars_17 <= 0
Scenario 518
Bounds
 cc_alt_vars_1 <= 0
 cc_alt_vars_22 <= 0
 cc_alt_vars_20 <= 0
 cc_alt_vars_9 <= 0
 cc_alt_vars_8 <= 0
 cc_alt_vars_19 <= 0
 cc_alt_vars_2 <= 0
 cc_alt_vars_6 <= 0
 cc_alt_vars_14 <= 0
 cc_alt_vars_16 <= 0
 cc_alt_vars_21 <= 0
 cc_alt_vars_4 <= 0
 cc_alt_vars_12 <= 0
 cc_alt_vars_5 <= 0
 cc_alt_vars_10 <= 0
 cc_alt_vars_17 <= 0
Scenario 519
Bounds
 cc_alt_vars_22 <= 0
 cc_alt_vars_20 <= 0
 cc_alt_vars_9 <= 0
 cc_alt_vars_8 <= 0
 cc_alt_vars_19 <= 0
 cc_alt_vars_2 <= 0
 cc_alt_vars_0 <= 0
 cc_alt_vars_6 <= 0
 cc_alt_vars_14 <= 0
 cc_alt_vars_16 <= 0
 cc_alt_vars_21 <= 0
 cc_alt_vars_4 <= 0
 cc_alt_vars_12 <= 0
 cc_alt_vars_5 <= 0
 cc_alt_vars_10 <= 0
 cc_alt_vars_17 <= 0
Scenario 520
Bounds
 cc_alt_vars_1 <= 0
 cc_alt_vars_22 <= 0
 cc_alt_vars_20 <= 0
 cc_alt_vars_9 <= 0
 cc_alt_vars_8 <= 0
 cc_alt_vars_19 <= 0
 cc_alt_vars_0 <= 0
 cc_alt_vars_6 <= 0
 cc_alt_vars_14 <= 0
 cc_alt_vars_16 <= 0
 cc_alt_vars_21 <= 0
 cc_alt_vars_4 <= 0
 cc_alt_vars_12 <= 0
 cc_alt_vars_5 <= 0
 cc_alt_vars_10 <= 0
 cc_alt_vars_17 <= 0
Scenario 521
Bounds
 cc_alt_vars_1 <= 0
 cc_alt_vars_22 <= 0
 cc_alt_vars_20 <= 0
 cc_alt_vars_9 <= 0
 cc_alt_vars_8 <= 0
 cc_alt_vars_19 <= 0
 cc_alt_vars_2 <= 0
 cc_alt_vars_6 <= 0
 cc_alt_vars_3 <= 0
 cc_alt_vars_14 <= 0
 cc_alt_vars_16 <= 0
 cc_alt_vars_21 <= 0
 cc_alt_vars_12 <= 0
 cc_alt_vars_5 <= 0
 cc_alt_vars_10 <= 0
 cc_alt_vars_17 <= 0
Scenario 522
Bounds
 cc_alt_vars_22 <= 0
 cc_alt_vars_20 <= 0
 cc_alt_vars_9 <= 0
 cc_alt_vars_8 <= 0
 cc_alt_vars_19 <= 0
 cc_alt_vars_2 <= 0
 cc_alt_vars_0 <= 0
 cc_alt_vars_6 <= 0
 cc_alt_vars_3 <= 0
 cc_alt_vars_14 <= 0
 cc_alt_vars_16 <= 0
 cc_alt_vars_21 <= 0
 cc_alt_vars_12 <= 0
 cc_alt_vars_5 <= 0
 cc_alt_vars_10 <= 0
 cc_alt_vars_17 <= 0
Scenario 523
Bounds
 cc_alt_vars_1 <= 0
 cc_alt_vars_22 <= 0
 cc_alt_vars_20 <= 0
 cc_alt_vars_9 <= 0
 cc_alt_vars_8 <= 0
 cc_alt_vars_19 <= 0
 cc_alt_vars_0 <= 0
 cc_alt_vars_6 <= 0
 cc_alt_vars_3 <= 0
 cc_alt_vars_14 <= 0
 cc_alt_vars_16 <= 0
 cc_alt_vars_21 <= 0
 cc_alt_vars_12 <= 0
 cc_alt_vars_5 <= 0
 cc_alt_vars_10 <= 0
 cc_alt_vars_17 <= 0
Scenario 524
Bounds
 cc_alt_vars_1 <= 0
 cc_alt_vars_22 <= 0
 cc_alt_vars_20 <= 0
 cc_alt_vars_9 <= 0
 cc_alt_vars_8 <= 0
 cc_alt_vars_19 <= 0
 cc_alt_vars_2 <= 0
 cc_alt_vars_6 <= 0
 cc_alt_vars_3 <= 0
 cc_alt_vars_14 <= 0
 cc_alt_vars_16 <= 0
 cc_alt_vars_21 <= 0
 cc_alt_vars_4 <= 0
 cc_alt_vars_12 <= 0
 cc_alt_vars_10 <= 0
 cc_alt_vars_17 <= 0
Scenario 525
Bounds
 cc_alt_vars_22 <= 0
 cc_alt_vars_20 <= 0
 cc_alt_vars_9 <= 0
 cc_alt_vars_8 <= 0
 cc_alt_vars_19 <= 0
 cc_alt_vars_2 <= 0
 cc_alt_vars_0 <= 0
 cc_alt_vars_6 <= 0
 cc_alt_vars_3 <= 0
 cc_alt_vars_14 <= 0
 cc_alt_vars_16 <= 0
 cc_alt_vars_21 <= 0
 cc_alt_vars_4 <= 0
 cc_alt_vars_12 <= 0
 cc_alt_vars_10 <= 0
 cc_alt_vars_17 <= 0
Scenario 526
Bounds
 cc_alt_vars_1 <= 0
 cc_alt_vars_22 <= 0
 cc_alt_vars_20 <= 0
 cc_alt_vars_9 <= 0
 cc_alt_vars_8 <= 0
 cc_alt_vars_19 <= 0
 cc_alt_vars_0 <= 0
 cc_alt_vars_6 <= 0
 cc_alt_vars_3 <= 0
 cc_alt_vars_14 <= 0
 cc_alt_vars_16 <= 0
 cc_alt_vars_21 <= 0
 cc_alt_vars_4 <= 0
 cc_alt_vars_12 <= 0
 cc_alt_vars_10 <= 0
 cc_alt_vars_17 <= 0
Scenario 527
Bounds
 cc_alt_vars_1 <= 0
 cc_alt_vars_22 <= 0
 cc_alt_vars_20 <= 0
 cc_alt_vars_9 <= 0
 cc_alt_vars_7 <= 0
 cc_alt_vars_19 <= 0
 cc_alt_vars_2 <= 0
 cc_alt_vars_6 <= 0
 cc_alt_vars_14 <= 0
 cc_alt_vars_16 <= 0
 cc_alt_vars_21 <= 0
 cc_alt_vars_4 <= 0
 cc_alt_vars_12 <= 0
 cc_alt_vars_5 <= 0
 cc_alt_vars_10 <= 0
 cc_alt_vars_17 <= 0
Scenario 528
Bounds
 cc_alt_vars_22 <= 0
 cc_alt_vars_20 <= 0
 cc_alt_vars_9 <= 0
 cc_alt_vars_7 <= 0
 cc_alt_vars_19 <= 0
 cc_alt_vars_2 <= 0
 cc_alt_vars_0 <= 0
 cc_alt_vars_6 <= 0
 cc_alt_vars_14 <= 0
 cc_alt_vars_16 <= 0
 cc_alt_vars_21 <= 0
 cc_alt_vars_4 <= 0
 cc_alt_vars_12 <= 0
 cc_alt_vars_5 <= 0
 cc_alt_vars_10 <= 0
 cc_alt_vars_17 <= 0
Scenario 529
Bounds
 cc_alt_vars_1 <= 0
 cc_alt_vars_22 <= 0
 cc_alt_vars_20 <= 0
 cc_alt_vars_9 <= 0
 cc_alt_vars_7 <= 0
 cc_alt_vars_19 <= 0
 cc_alt_vars_0 <= 0
 cc_alt_vars_6 <= 0
 cc_alt_vars_14 <= 0
 cc_alt_vars_16 <= 0
 cc_alt_vars_21 <= 0
 cc_alt_vars_4 <= 0
 cc_alt_vars_12 <= 0
 cc_alt_vars_5 <= 0
 cc_alt_vars_10 <= 0
 cc_alt_vars_17 <= 0
Scenario 530
Bounds
 cc_alt_vars_1 <= 0
 cc_alt_vars_22 <= 0
 cc_alt_vars_20 <= 0
 cc_alt_vars_9 <= 0
 cc_alt_vars_7 <= 0
 cc_alt_vars_19 <= 0
 cc_alt_vars_2 <= 0
 cc_alt_vars_6 <= 0
 cc_alt_vars_3 <= 0
 cc_alt_vars_14 <= 0
 cc_alt_vars_16 <= 0
 cc_alt_vars_21 <= 0
 cc_alt_vars_12 <= 0
 cc_alt_vars_5 <= 0
 cc_alt_vars_10 <= 0
 cc_alt_vars_17 <= 0
Scenario 531
Bounds
 cc_alt_vars_22 <= 0
 cc_alt_vars_20 <= 0
 cc_alt_vars_9 <= 0
 cc_alt_vars_7 <= 0
 cc_alt_vars_19 <= 0
 cc_alt_vars_2 <= 0
 cc_alt_vars_0 <= 0
 cc_alt_vars_6 <= 0
 cc_alt_vars_3 <= 0
 cc_alt_vars_14 <= 0
 cc_alt_vars_16 <= 0
 cc_alt_vars_21 <= 0
 cc_alt_vars_12 <= 0
 cc_alt_vars_5 <= 0
 cc_alt_vars_10 <= 0
 cc_alt_vars_17 <= 0
Scenario 532
Bounds
 cc_alt_vars_1 <= 0
 cc_alt_vars_22 <= 0
 cc_alt_vars_20 <= 0
 cc_alt_vars_9 <= 0
 cc_alt_vars_7 <= 0
 cc_alt_vars_19 <= 0
 cc_alt_vars_0 <= 0
 cc_alt_vars_6 <= 0
 cc_alt_vars_3 <= 0
 cc_alt_vars_14 <= 0
 cc_alt_vars_16 <= 0
 cc_alt_vars_21 <= 0
 cc_alt_vars_12 <= 0
 cc_alt_vars_5 <= 0
 cc_alt_vars_10 <= 0
 cc_alt_vars_17 <= 0
Scenario 533
Bounds
 cc_alt_vars_1 <= 0
 cc_alt_vars_22 <= 0
 cc_alt_vars_20 <= 0
 cc_alt_vars_9 <= 0
 cc_alt_vars_7 <= 0
 cc_alt_vars_19 <= 0
 cc_alt_vars_2 <= 0
 cc_alt_vars_6 <= 0
 cc_alt_vars_3 <= 0
 cc_alt_vars_14 <= 0
 cc_alt_vars_16 <= 0
 cc_alt_vars_21 <= 0
 cc_alt_vars_4 <= 0
 cc_alt_vars_12 <= 0
 cc_alt_vars_10 <= 0
 cc_alt_vars_17 <= 0
Scenario 534
Bounds
 cc_alt_vars_22 <= 0
 cc_alt_vars_20 <= 0
 cc_alt_vars_9 <= 0
 cc_alt_vars_7 <= 0
 cc_alt_vars_19 <= 0
 cc_alt_vars_2 <= 0
 cc_alt_vars_0 <= 0
 cc_alt_vars_6 <= 0
 cc_alt_vars_3 <= 0
 cc_alt_vars_14 <= 0
 cc_alt_vars_16 <= 0
 cc_alt_vars_21 <= 0
 cc_alt_vars_4 <= 0
 cc_alt_vars_12 <= 0
 cc_alt_vars_10 <= 0
 cc_alt_vars_17 <= 0
Scenario 535
Bounds
 cc_alt_vars_1 <= 0
 cc_alt_vars_22 <= 0
 cc_alt_vars_20 <= 0
 cc_alt_vars_9 <= 0
 cc_alt_vars_7 <= 0
 cc_alt_vars_19 <= 0
 cc_alt_vars_0 <= 0
 cc_alt_vars_6 <= 0
 cc_alt_vars_3 <= 0
 cc_alt_vars_14 <= 0
 cc_alt_vars_16 <= 0
 cc_alt_vars_21 <= 0
 cc_alt_vars_4 <= 0
 cc_alt_vars_12 <= 0
 cc_alt_vars_10 <= 0
 cc_alt_vars_17 <= 0
Scenario 536
Bounds
 cc_alt_vars_1 <= 0
 cc_alt_vars_22 <= 0
 cc_alt_vars_20 <= 0
 cc_alt_vars_8 <= 0
 cc_alt_vars_7 <= 0
 cc_alt_vars_19 <= 0
 cc_alt_vars_2 <= 0
 cc_alt_vars_13 <= 0
 cc_alt_vars_16 <= 0
 cc_alt_vars_21 <= 0
 cc_alt_vars_11 <= 0
 cc_alt_vars_4 <= 0
 cc_alt_vars_12 <= 0
 cc_alt_vars_5 <= 0
 cc_alt_vars_10 <= 0
 cc_alt_vars_17 <= 0
Scenario 537
Bounds
 cc_alt_vars_22 <= 0
 cc_alt_vars_20 <= 0
 cc_alt_vars_8 <= 0
 cc_alt_vars_7 <= 0
 cc_alt_vars_19 <= 0
 cc_alt_vars_2 <= 0
 cc_alt_vars_0 <= 0
 cc_alt_vars_13 <= 0
 cc_alt_vars_16 <= 0
 cc_alt_vars_21 <= 0
 cc_alt_vars_11 <= 0
 cc_alt_vars_4 <= 0
 cc_alt_vars_12 <= 0
 cc_alt_vars_5 <= 0
 cc_alt_vars_10 <= 0
 cc_alt_vars_17 <= 0
Scenario 538
Bounds
 cc_alt_vars_1 <= 0
 cc_alt_vars_22 <= 0
 cc_alt_vars_20 <= 0
 cc_alt_vars_8 <= 0
 cc_alt_vars_7 <= 0
 cc_alt_vars_19 <= 0
 cc_alt_vars_0 <= 0
 cc_alt_vars_13 <= 0
 cc_alt_vars_16 <= 0
 cc_alt_vars_21 <= 0
 cc_alt_vars_11 <= 0
 cc_alt_vars_4 <= 0
 cc_alt_vars_12 <= 0
 cc_alt_vars_5 <= 0
 cc_alt_vars_10 <= 0
 cc_alt_vars_17 <= 0
Scenario 539
Bounds
 cc_alt_vars_1 <= 0
 cc_alt_vars_22 <= 0
 cc_alt_vars_20 <= 0
 cc_alt_vars_8 <= 0
 cc_alt_vars_7 <= 0
 cc_alt_vars_19 <= 0
 cc_alt_vars_2 <= 0
 cc_alt_vars_3 <= 0
 cc_alt_vars_13 <= 0
 cc_alt_vars_16 <= 0
 cc_alt_vars_21 <= 0
 cc_alt_vars_11 <= 0
 cc_alt_vars_12 <= 0
 cc_alt_vars_5 <= 0
 cc_alt_vars_10 <= 0
 cc_alt_vars_17 <= 0
Scenario 540
Bounds
 cc_alt_vars_22 <= 0
 cc_alt_vars_20 <= 0
 cc_alt_vars_8 <= 0
 cc_alt_vars_7 <= 0
 cc_alt_vars_19 <= 0
 cc_alt_vars_2 <= 0
 cc_alt_vars_0 <= 0
 cc_alt_vars_3 <= 0
 cc_alt_vars_13 <= 0
 cc_alt_vars_16 <= 0
 cc_alt_vars_21 <= 0
 cc_alt_vars_11 <= 0
 cc_alt_vars_12 <= 0
 cc_alt_vars_5 <= 0
 cc_alt_vars_10 <= 0
 cc_alt_vars_17 <= 0
Scenario 541
Bounds
 cc_alt_vars_1 <= 0
 cc_alt_vars_22 <= 0
 cc_alt_vars_20 <= 0
 cc_alt_vars_8 <= 0
 cc_alt_vars_7 <= 0
 cc_alt_vars_19 <= 0
 cc_alt_vars_0 <= 0
 cc_alt_vars_3 <= 0
 cc_alt_vars_13 <= 0
 cc_alt_vars_16 <= 0
 cc_alt_vars_21 <= 0
 cc_alt_vars_11 <= 0
 cc_alt_vars_12 <= 0
 cc_alt_vars_5 <= 0
 cc_alt_vars_10 <= 0
 cc_alt_vars_17 <= 0
Scenario 542
Bounds
 cc_alt_vars_1 <= 0
 cc_alt_vars_22 <= 0
 cc_alt_vars_20 <= 0
 cc_alt_vars_8 <= 0
 cc_alt_vars_7 <= 0
 cc_alt_vars_19 <= 0
 cc_alt_vars_2 <= 0
 cc_alt_vars_3 <= 0
 cc_alt_vars_13 <= 0
 cc_alt_vars_16 <= 0
 cc_alt_vars_21 <= 0
 cc_alt_vars_11 <= 0
 cc_alt_vars_4 <= 0
 cc_alt_vars_12 <= 0
 cc_alt_vars_10 <= 0
 cc_alt_vars_17 <= 0
Scenario 543
Bounds
 cc_alt_vars_22 <= 0
 cc_alt_vars_20 <= 0
 cc_alt_vars_8 <= 0
 cc_alt_vars_7 <= 0
 cc_alt_vars_19 <= 0
 cc_alt_vars_2 <= 0
 cc_alt_vars_0 <= 0
 cc_alt_vars_3 <= 0
 cc_alt_vars_13 <= 0
 cc_alt_vars_16 <= 0
 cc_alt_vars_21 <= 0
 cc_alt_vars_11 <= 0
 cc_alt_vars_4 <= 0
 cc_alt_vars_12 <= 0
 cc_alt_vars_10 <= 0
 cc_alt_vars_17 <= 0
Scenario 544
Bounds
 cc_alt_vars_1 <= 0
 cc_alt_vars_22 <= 0
 cc_alt_vars_20 <= 0
 cc_alt_vars_8 <= 0
 cc_alt_vars_7 <= 0
 cc_alt_vars_19 <= 0
 cc_alt_vars_0 <= 0
 cc_alt_vars_3 <= 0
 cc_alt_vars_13 <= 0
 cc_alt_vars_16 <= 0
 cc_alt_vars_21 <= 0
 cc_alt_vars_11 <= 0
 cc_alt_vars_4 <= 0
 cc_alt_vars_12 <= 0
 cc_alt_vars_10 <= 0
 cc_alt_vars_17 <= 0
Scenario 545
Bounds
 cc_alt_vars_1 <= 0
 cc_alt_vars_22 <= 0
 cc_alt_vars_20 <= 0
 cc_alt_vars_8 <= 0
 cc_alt_vars_19 <= 0
 cc_alt_vars_2 <= 0
 cc_alt_vars_6 <= 0
 cc_alt_vars_13 <= 0
 cc_alt_vars_16 <= 0
 cc_alt_vars_21 <= 0
 cc_alt_vars_11 <= 0
 cc_alt_vars_4 <= 0
 cc_alt_vars_12 <= 0
 cc_alt_vars_5 <= 0
 cc_alt_vars_10 <= 0
 cc_alt_vars_17 <= 0
Scenario 546
Bounds
 cc_alt_vars_22 <= 0
 cc_alt_vars_20 <= 0
 cc_alt_vars_8 <= 0
 cc_alt_vars_19 <= 0
 cc_alt_vars_2 <= 0
 cc_alt_vars_0 <= 0
 cc_alt_vars_6 <= 0
 cc_alt_vars_13 <= 0
 cc_alt_vars_16 <= 0
 cc_alt_vars_21 <= 0
 cc_alt_vars_11 <= 0
 cc_alt_vars_4 <= 0
 cc_alt_vars_12 <= 0
 cc_alt_vars_5 <= 0
 cc_alt_vars_10 <= 0
 cc_alt_vars_17 <= 0
Scenario 547
Bounds
 cc_alt_vars_1 <= 0
 cc_alt_vars_22 <= 0
 cc_alt_vars_20 <= 0
 cc_alt_vars_8 <= 0
 cc_alt_vars_19 <= 0
 cc_alt_vars_0 <= 0
 cc_alt_vars_6 <= 0
 cc_alt_vars_13 <= 0
 cc_alt_vars_16 <= 0
 cc_alt_vars_21 <= 0
 cc_alt_vars_11 <= 0
 cc_alt_vars_4 <= 0
 cc_alt_vars_12 <= 0
 cc_alt_vars_5 <= 0
 cc_alt_vars_10 <= 0
 cc_alt_vars_17 <= 0
Scenario 548
Bounds
 cc_alt_vars_1 <= 0
 cc_alt_vars_22 <= 0
 cc_alt_vars_20 <= 0
 cc_alt_vars_8 <= 0
 cc_alt_vars_19 <= 0
 cc_alt_vars_2 <= 0
 cc_alt_vars_6 <= 0
 cc_alt_vars_3 <= 0
 cc_alt_vars_13 <= 0
 cc_alt_vars_16 <= 0
 cc_alt_vars_21 <= 0
 cc_alt_vars_11 <= 0
 cc_alt_vars_12 <= 0
 cc_alt_vars_5 <= 0
 cc_alt_vars_10 <= 0
 cc_alt_vars_17 <= 0
Scenario 549
Bounds
 cc_alt_vars_22 <= 0
 cc_alt_vars_20 <= 0
 cc_alt_vars_8 <= 0
 cc_alt_vars_19 <= 0
 cc_alt_vars_2 <= 0
 cc_alt_vars_0 <= 0
 cc_alt_vars_6 <= 0
 cc_alt_vars_3 <= 0
 cc_alt_vars_13 <= 0
 cc_alt_vars_16 <= 0
 cc_alt_vars_21 <= 0
 cc_alt_vars_11 <= 0
 cc_alt_vars_12 <= 0
 cc_alt_vars_5 <= 0
 cc_alt_vars_10 <= 0
 cc_alt_vars_17 <= 0
Scenario 550
Bounds
 cc_alt_vars_1 <= 0
 cc_alt_vars_22 <= 0
 cc_alt_vars_20 <= 0
 cc_alt_vars_8 <= 0
 cc_alt_vars_19 <= 0
 cc_alt_vars_0 <= 0
 cc_alt_vars_6 <= 0
 cc_alt_vars_3 <= 0
 cc_alt_vars_13 <= 0
 cc_alt_vars_16 <= 0
 cc_alt_vars_21 <= 0
 cc_alt_vars_11 <= 0
 cc_alt_vars_12 <= 0
 cc_alt_vars_5 <= 0
 cc_alt_vars_10 <= 0
 cc_alt_vars_17 <= 0
Scenario 551
Bounds
 cc_alt_vars_1 <= 0
 cc_alt_vars_22 <= 0
 cc_alt_vars_20 <= 0
 cc_alt_vars_8 <= 0
 cc_alt_vars_19 <= 0
 cc_alt_vars_2 <= 0
 cc_alt_vars_6 <= 0
 cc_alt_vars_3 <= 0
 cc_alt_vars_13 <= 0
 cc_alt_vars_16 <= 0
 cc_alt_vars_21 <= 0
 cc_alt_vars_11 <= 0
 cc_alt_vars_4 <= 0
 cc_alt_vars_12 <= 0
 cc_alt_vars_10 <= 0
 cc_alt_vars_17 <= 0
Scenario 552
Bounds
 cc_alt_vars_22 <= 0
 cc_alt_vars_20 <= 0
 cc_alt_vars_8 <= 0
 cc_alt_vars_19 <= 0
 cc_alt_vars_2 <= 0
 cc_alt_vars_0 <= 0
 cc_alt_vars_6 <= 0
 cc_alt_vars_3 <= 0
 cc_alt_vars_13 <= 0
 cc_alt_vars_16 <= 0
 cc_alt_vars_21 <= 0
 cc_alt_vars_11 <= 0
 cc_alt_vars_4 <= 0
 cc_alt_vars_12 <= 0
 cc_alt_vars_10 <= 0
 cc_alt_vars_17 <= 0
Scenario 553
Bounds
 cc_alt_vars_1 <= 0
 cc_alt_vars_22 <= 0
 cc_alt_vars_20 <= 0
 cc_alt_vars_8 <= 0
 cc_alt_vars_19 <= 0
 cc_alt_vars_0 <= 0
 cc_alt_vars_6 <= 0
 cc_alt_vars_3 <= 0
 cc_alt_vars_13 <= 0
 cc_alt_vars_16 <= 0
 cc_alt_vars_21 <= 0
 cc_alt_vars_11 <= 0
 cc_alt_vars_4 <= 0
 cc_alt_vars_12 <= 0
 cc_alt_vars_10 <= 0
 cc_alt_vars_17 <= 0
Scenario 554
Bounds
 cc_alt_vars_1 <= 0
 cc_alt_vars_22 <= 0
 cc_alt_vars_20 <= 0
 cc_alt_vars_7 <= 0
 cc_alt_vars_19 <= 0
 cc_alt_vars_2 <= 0
 cc_alt_vars_6 <= 0
 cc_alt_vars_13 <= 0
 cc_alt_vars_16 <= 0
 cc_alt_vars_21 <= 0
 cc_alt_vars_11 <= 0
 cc_alt_vars_4 <= 0
 cc_alt_vars_12 <= 0
 cc_alt_vars_5 <= 0
 cc_alt_vars_10 <= 0
 cc_alt_vars_17 <= 0
Scenario 555
Bounds
 cc_alt_vars_22 <= 0
 cc_alt_vars_20 <= 0
 cc_alt_vars_7 <= 0
 cc_alt_vars_19 <= 0
 cc_alt_vars_2 <= 0
 cc_alt_vars_0 <= 0
 cc_alt_vars_6 <= 0
 cc_alt_vars_13 <= 0
 cc_alt_vars_16 <= 0
 cc_alt_vars_21 <= 0
 cc_alt_vars_11 <= 0
 cc_alt_vars_4 <= 0
 cc_alt_vars_12 <= 0
 cc_alt_vars_5 <= 0
 cc_alt_vars_10 <= 0
 cc_alt_vars_17 <= 0
Scenario 556
Bounds
 cc_alt_vars_1 <= 0
 cc_alt_vars_22 <= 0
 cc_alt_vars_20 <= 0
 cc_alt_vars_7 <= 0
 cc_alt_vars_19 <= 0
 cc_alt_vars_0 <= 0
 cc_alt_vars_6 <= 0
 cc_alt_vars_13 <= 0
 cc_alt_vars_16 <= 0
 cc_alt_vars_21 <= 0
 cc_alt_vars_11 <= 0
 cc_alt_vars_4 <= 0
 cc_alt_vars_12 <= 0
 cc_alt_vars_5 <= 0
 cc_alt_vars_10 <= 0
 cc_alt_vars_17 <= 0
Scenario 557
Bounds
 cc_alt_vars_1 <= 0
 cc_alt_vars_22 <= 0
 cc_alt_vars_20 <= 0
 cc_alt_vars_7 <= 0
 cc_alt_vars_19 <= 0
 cc_alt_vars_2 <= 0
 cc_alt_vars_6 <= 0
 cc_alt_vars_3 <= 0
 cc_alt_vars_13 <= 0
 cc_alt_vars_16 <= 0
 cc_alt_vars_21 <= 0
 cc_alt_vars_11 <= 0
 cc_alt_vars_12 <= 0
 cc_alt_vars_5 <= 0
 cc_alt_vars_10 <= 0
 cc_alt_vars_17 <= 0
Scenario 558
Bounds
 cc_alt_vars_22 <= 0
 cc_alt_vars_20 <= 0
 cc_alt_vars_7 <= 0
 cc_alt_vars_19 <= 0
 cc_alt_vars_2 <= 0
 cc_alt_vars_0 <= 0
 cc_alt_vars_6 <= 0
 cc_alt_vars_3 <= 0
 cc_alt_vars_13 <= 0
 cc_alt_vars_16 <= 0
 cc_alt_vars_21 <= 0
 cc_alt_vars_11 <= 0
 cc_alt_vars_12 <= 0
 cc_alt_vars_5 <= 0
 cc_alt_vars_10 <= 0
 cc_alt_vars_17 <= 0
Scenario 559
Bounds
 cc_alt_vars_1 <= 0
 cc_alt_vars_22 <= 0
 cc_alt_vars_20 <= 0
 cc_alt_vars_7 <= 0
 cc_alt_vars_19 <= 0
 cc_alt_vars_0 <= 0
 cc_alt_vars_6 <= 0
 cc_alt_vars_3 <= 0
 cc_alt_vars_13 <= 0
 cc_alt_vars_16 <= 0
 cc_alt_vars_21 <= 0
 cc_alt_vars_11 <= 0
 cc_alt_vars_12 <= 0
 cc_alt_vars_5 <= 0
 cc_alt_vars_10 <= 0
 cc_alt_vars_17 <= 0
Scenario 560
Bounds
 cc_alt_vars_1 <= 0
 cc_alt_vars_22 <= 0
 cc_alt_vars_20 <= 0
 cc_alt_vars_7 <= 0
 cc_alt_vars_19 <= 0
 cc_alt_vars_2 <= 0
 cc_alt_vars_6 <= 0
 cc_alt_vars_3 <= 0
 cc_alt_vars_13 <= 0
 cc_alt_vars_16 <= 0
 cc_alt_vars_21 <= 0
 cc_alt_vars_11 <= 0
 cc_alt_vars_4 <= 0
 cc_alt_vars_12 <= 0
 cc_alt_vars_10 <= 0
 cc_alt_vars_17 <= 0
Scenario 561
Bounds
 cc_alt_vars_22 <= 0
 cc_alt_vars_20 <= 0
 cc_alt_vars_7 <= 0
 cc_alt_vars_19 <= 0
 cc_alt_vars_2 <= 0
 cc_alt_vars_0 <= 0
 cc_alt_vars_6 <= 0
 cc_alt_vars_3 <= 0
 cc_alt_vars_13 <= 0
 cc_alt_vars_16 <= 0
 cc_alt_vars_21 <= 0
 cc_alt_vars_11 <= 0
 cc_alt_vars_4 <= 0
 cc_alt_vars_12 <= 0
 cc_alt_vars_10 <= 0
 cc_alt_vars_17 <= 0
Scenario 562
Bounds
 cc_alt_vars_1 <= 0
 cc_alt_vars_22 <= 0
 cc_alt_vars_20 <= 0
 cc_alt_vars_7 <= 0
 cc_alt_vars_19 <= 0
 cc_alt_vars_0 <= 0
 cc_alt_vars_6 <= 0
 cc_alt_vars_3 <= 0
 cc_alt_vars_13 <= 0
 cc_alt_vars_16 <= 0
 cc_alt_vars_21 <= 0
 cc_alt_vars_11 <= 0
 cc_alt_vars_4 <= 0
 cc_alt_vars_12 <= 0
 cc_alt_vars_10 <= 0
 cc_alt_vars_17 <= 0
Scenario 563
Bounds
 cc_alt_vars_1 <= 0
 cc_alt_vars_22 <= 0
 cc_alt_vars_20 <= 0
 cc_alt_vars_9 <= 0
 cc_alt_vars_8 <= 0
 cc_alt_vars_7 <= 0
 cc_alt_vars_19 <= 0
 cc_alt_vars_2 <= 0
 cc_alt_vars_13 <= 0
 cc_alt_vars_16 <= 0
 cc_alt_vars_21 <= 0
 cc_alt_vars_11 <= 0
 cc_alt_vars_4 <= 0
 cc_alt_vars_12 <= 0
 cc_alt_vars_5 <= 0
 cc_alt_vars_17 <= 0
Scenario 564
Bounds
 cc_alt_vars_22 <= 0
 cc_alt_vars_20 <= 0
 cc_alt_vars_9 <= 0
 cc_alt_vars_8 <= 0
 cc_alt_vars_7 <= 0
 cc_alt_vars_19 <= 0
 cc_alt_vars_2 <= 0
 cc_alt_vars_0 <= 0
 cc_alt_vars_13 <= 0
 cc_alt_vars_16 <= 0
 cc_alt_vars_21 <= 0
 cc_alt_vars_11 <= 0
 cc_alt_vars_4 <= 0
 cc_alt_vars_12 <= 0
 cc_alt_vars_5 <= 0
 cc_alt_vars_17 <= 0
Scenario 565
Bounds
 cc_alt_vars_1 <= 0
 cc_alt_vars_22 <= 0
 cc_alt_vars_20 <= 0
 cc_alt_vars_9 <= 0
 cc_alt_vars_8 <= 0
 cc_alt_vars_7 <= 0
 cc_alt_vars_19 <= 0
 cc_alt_vars_0 <= 0
 cc_alt_vars_13 <= 0
 cc_alt_vars_16 <= 0
 cc_alt_vars_21 <= 0
 cc_alt_vars_11 <= 0
 cc_alt_vars_4 <= 0
 cc_alt_vars_12 <= 0
 cc_alt_vars_5 <= 0
 cc_alt_vars_17 <= 0
Scenario 566
Bounds
 cc_alt_vars_1 <= 0
 cc_alt_vars_22 <= 0
 cc_alt_vars_20 <= 0
 cc_alt_vars_9 <= 0
 cc_alt_vars_8 <= 0
 cc_alt_vars_7 <= 0
 cc_alt_vars_19 <= 0
 cc_alt_vars_2 <= 0
 cc_alt_vars_3 <= 0
 cc_alt_vars_13 <= 0
 cc_alt_vars_16 <= 0
 cc_alt_vars_21 <= 0
 cc_alt_vars_11 <= 0
 cc_alt_vars_12 <= 0
 cc_alt_vars_5 <= 0
 cc_alt_vars_17 <= 0
Scenario 567
Bounds
 cc_alt_vars_22 <= 0
 cc_alt_vars_20 <= 0
 cc_alt_vars_9 <= 0
 cc_alt_vars_8 <= 0
 cc_alt_vars_7 <= 0
 cc_alt_vars_19 <= 0
 cc_alt_vars_2 <= 0
 cc_alt_vars_0 <= 0
 cc_alt_vars_3 <= 0
 cc_alt_vars_13 <= 0
 cc_alt_vars_16 <= 0
 cc_alt_vars_21 <= 0
 cc_alt_vars_11 <= 0
 cc_alt_vars_12 <= 0
 cc_alt_vars_5 <= 0
 cc_alt_vars_17 <= 0
Scenario 568
Bounds
 cc_alt_vars_1 <= 0
 cc_alt_vars_22 <= 0
 cc_alt_vars_20 <= 0
 cc_alt_vars_9 <= 0
 cc_alt_vars_8 <= 0
 cc_alt_vars_7 <= 0
 cc_alt_vars_19 <= 0
 cc_alt_vars_0 <= 0
 cc_alt_vars_3 <= 0
 cc_alt_vars_13 <= 0
 cc_alt_vars_16 <= 0
 cc_alt_vars_21 <= 0
 cc_alt_vars_11 <= 0
 cc_alt_vars_12 <= 0
 cc_alt_vars_5 <= 0
 cc_alt_vars_17 <= 0
Scenario 569
Bounds
 cc_alt_vars_1 <= 0
 cc_alt_vars_22 <= 0
 cc_alt_vars_20 <= 0
 cc_alt_vars_9 <= 0
 cc_alt_vars_8 <= 0
 cc_alt_vars_7 <= 0
 cc_alt_vars_19 <= 0
 cc_alt_vars_2 <= 0
 cc_alt_vars_3 <= 0
 cc_alt_vars_13 <= 0
 cc_alt_vars_16 <= 0
 cc_alt_vars_21 <= 0
 cc_alt_vars_11 <= 0
 cc_alt_vars_4 <= 0
 cc_alt_vars_12 <= 0
 cc_alt_vars_17 <= 0
Scenario 570
Bounds
 cc_alt_vars_22 <= 0
 cc_alt_vars_20 <= 0
 cc_alt_vars_9 <= 0
 cc_alt_vars_8 <= 0
 cc_alt_vars_7 <= 0
 cc_alt_vars_19 <= 0
 cc_alt_vars_2 <= 0
 cc_alt_vars_0 <= 0
 cc_alt_vars_3 <= 0
 cc_alt_vars_13 <= 0
 cc_alt_vars_16 <= 0
 cc_alt_vars_21 <= 0
 cc_alt_vars_11 <= 0
 cc_alt_vars_4 <= 0
 cc_alt_vars_12 <= 0
 cc_alt_vars_17 <= 0
Scenario 571
Bounds
 cc_alt_vars_1 <= 0
 cc_alt_vars_22 <= 0
 cc_alt_vars_20 <= 0
 cc_alt_vars_9 <= 0
 cc_alt_vars_8 <= 0
 cc_alt_vars_7 <= 0
 cc_alt_vars_19 <= 0
 cc_alt_vars_0 <= 0
 cc_alt_vars_3 <= 0
 cc_alt_vars_13 <= 0
 cc_alt_vars_16 <= 0
 cc_alt_vars_21 <= 0
 cc_alt_vars_11 <= 0
 cc_alt_vars_4 <= 0
 cc_alt_vars_12 <= 0
 cc_alt_vars_17 <= 0
Scenario 572
Bounds
 cc_alt_vars_1 <= 0
 cc_alt_vars_22 <= 0
 cc_alt_vars_20 <= 0
 cc_alt_vars_9 <= 0
 cc_alt_vars_8 <= 0
 cc_alt_vars_19 <= 0
 cc_alt_vars_2 <= 0
 cc_alt_vars_6 <= 0
 cc_alt_vars_13 <= 0
 cc_alt_vars_16 <= 0
 cc_alt_vars_21 <= 0
 cc_alt_vars_11 <= 0
 cc_alt_vars_4 <= 0
 cc_alt_vars_12 <= 0
 cc_alt_vars_5 <= 0
 cc_alt_vars_17 <= 0
Scenario 573
Bounds
 cc_alt_vars_22 <= 0
 cc_alt_vars_20 <= 0
 cc_alt_vars_9 <= 0
 cc_alt_vars_8 <= 0
 cc_alt_vars_19 <= 0
 cc_alt_vars_2 <= 0
 cc_alt_vars_0 <= 0
 cc_alt_vars_6 <= 0
 cc_alt_vars_13 <= 0
 cc_alt_vars_16 <= 0
 cc_alt_vars_21 <= 0
 cc_alt_vars_11 <= 0
 cc_alt_vars_4 <= 0
 cc_alt_vars_12 <= 0
 cc_alt_vars_5 <= 0
 cc_alt_vars_17 <= 0
Scenario 574
Bounds
 cc_alt_vars_1 <= 0
 cc_alt_vars_22 <= 0
 cc_alt_vars_20 <= 0
 cc_alt_vars_9 <= 0
 cc_alt_vars_8 <= 0
 cc_alt_vars_19 <= 0
 cc_alt_vars_0 <= 0
 cc_alt_vars_6 <= 0
 cc_alt_vars_13 <= 0
 cc_alt_vars_16 <= 0
 cc_alt_vars_21 <= 0
 cc_alt_vars_11 <= 0
 cc_alt_vars_4 <= 0
 cc_alt_vars_12 <= 0
 cc_alt_vars_5 <= 0
 cc_alt_vars_17 <= 0
Scenario 575
Bounds
 cc_alt_vars_1 <= 0
 cc_alt_vars_22 <= 0
 cc_alt_vars_20 <= 0
 cc_alt_vars_9 <= 0
 cc_alt_vars_8 <= 0
 cc_alt_vars_19 <= 0
 cc_alt_vars_2 <= 0
 cc_alt_vars_6 <= 0
 cc_alt_vars_3 <= 0
 cc_alt_vars_13 <= 0
 cc_alt_vars_16 <= 0
 cc_alt_vars_21 <= 0
 cc_alt_vars_11 <= 0
 cc_alt_vars_12 <= 0
 cc_alt_vars_5 <= 0
 cc_alt_vars_17 <= 0
Scenario 576
Bounds
 cc_alt_vars_22 <= 0
 cc_alt_vars_20 <= 0
 cc_alt_vars_9 <= 0
 cc_alt_vars_8 <= 0
 cc_alt_vars_19 <= 0
 cc_alt_vars_2 <= 0
 cc_alt_vars_0 <= 0
 cc_alt_vars_6 <= 0
 cc_alt_vars_3 <= 0
 cc_alt_vars_13 <= 0
 cc_alt_vars_16 <= 0
 cc_alt_vars_21 <= 0
 cc_alt_vars_11 <= 0
 cc_alt_vars_12 <= 0
 cc_alt_vars_5 <= 0
 cc_alt_vars_17 <= 0
Scenario 577
Bounds
 cc_alt_vars_1 <= 0
 cc_alt_vars_22 <= 0
 cc_alt_vars_20 <= 0
 cc_alt_vars_9 <= 0
 cc_alt_vars_8 <= 0
 cc_alt_vars_19 <= 0
 cc_alt_vars_0 <= 0
 cc_alt_vars_6 <= 0
 cc_alt_vars_3 <= 0
 cc_alt_vars_13 <= 0
 cc_alt_vars_16 <= 0
 cc_alt_vars_21 <= 0
 cc_alt_vars_11 <= 0
 cc_alt_vars_12 <= 0
 cc_alt_vars_5 <= 0
 cc_alt_vars_17 <= 0
Scenario 578
Bounds
 cc_alt_vars_1 <= 0
 cc_alt_vars_22 <= 0
 cc_alt_vars_20 <= 0
 cc_alt_vars_9 <= 0
 cc_alt_vars_8 <= 0
 cc_alt_vars_19 <= 0
 cc_alt_vars_2 <= 0
 cc_alt_vars_6 <= 0
 cc_alt_vars_3 <= 0
 cc_alt_vars_13 <= 0
 cc_alt_vars_16 <= 0
 cc_alt_vars_21 <= 0
 cc_alt_vars_11 <= 0
 cc_alt_vars_4 <= 0
 cc_alt_vars_12 <= 0
 cc_alt_vars_17 <= 0
Scenario 579
Bounds
 cc_alt_vars_22 <= 0
 cc_alt_vars_20 <= 0
 cc_alt_vars_9 <= 0
 cc_alt_vars_8 <= 0
 cc_alt_vars_19 <= 0
 cc_alt_vars_2 <= 0
 cc_alt_vars_0 <= 0
 cc_alt_vars_6 <= 0
 cc_alt_vars_3 <= 0
 cc_alt_vars_13 <= 0
 cc_alt_vars_16 <= 0
 cc_alt_vars_21 <= 0
 cc_alt_vars_11 <= 0
 cc_alt_vars_4 <= 0
 cc_alt_vars_12 <= 0
 cc_alt_vars_17 <= 0
Scenario 580
Bounds
 cc_alt_vars_1 <= 0
 cc_alt_vars_22 <= 0
 cc_alt_vars_20 <= 0
 cc_alt_vars_9 <= 0
 cc_alt_vars_8 <= 0
 cc_alt_vars_19 <= 0
 cc_alt_vars_0 <= 0
 cc_alt_vars_6 <= 0
 cc_alt_vars_3 <= 0
 cc_alt_vars_13 <= 0
 cc_alt_vars_16 <= 0
 cc_alt_vars_21 <= 0
 cc_alt_vars_11 <= 0
 cc_alt_vars_4 <= 0
 cc_alt_vars_12 <= 0
 cc_alt_vars_17 <= 0
Scenario 581
Bounds
 cc_alt_vars_1 <= 0
 cc_alt_vars_22 <= 0
 cc_alt_vars_20 <= 0
 cc_alt_vars_9 <= 0
 cc_alt_vars_7 <= 0
 cc_alt_vars_19 <= 0
 cc_alt_vars_2 <= 0
 cc_alt_vars_6 <= 0
 cc_alt_vars_13 <= 0
 cc_alt_vars_16 <= 0
 cc_alt_vars_21 <= 0
 cc_alt_vars_11 <= 0
 cc_alt_vars_4 <= 0
 cc_alt_vars_12 <= 0
 cc_alt_vars_5 <= 0
 cc_alt_vars_17 <= 0
Scenario 582
Bounds
 cc_alt_vars_22 <= 0
 cc_alt_vars_20 <= 0
 cc_alt_vars_9 <= 0
 cc_alt_vars_7 <= 0
 cc_alt_vars_19 <= 0
 cc_alt_vars_2 <= 0
 cc_alt_vars_0 <= 0
 cc_alt_vars_6 <= 0
 cc_alt_vars_13 <= 0
 cc_alt_vars_16 <= 0
 cc_alt_vars_21 <= 0
 cc_alt_vars_11 <= 0
 cc_alt_vars_4 <= 0
 cc_alt_vars_12 <= 0
 cc_alt_vars_5 <= 0
 cc_alt_vars_17 <= 0
Scenario 583
Bounds
 cc_alt_vars_1 <= 0
 cc_alt_vars_22 <= 0
 cc_alt_vars_20 <= 0
 cc_alt_vars_9 <= 0
 cc_alt_vars_7 <= 0
 cc_alt_vars_19 <= 0
 cc_alt_vars_0 <= 0
 cc_alt_vars_6 <= 0
 cc_alt_vars_13 <= 0
 cc_alt_vars_16 <= 0
 cc_alt_vars_21 <= 0
 cc_alt_vars_11 <= 0
 cc_alt_vars_4 <= 0
 cc_alt_vars_12 <= 0
 cc_alt_vars_5 <= 0
 cc_alt_vars_17 <= 0
Scenario 584
Bounds
 cc_alt_vars_1 <= 0
 cc_alt_vars_22 <= 0
 cc_alt_vars_20 <= 0
 cc_alt_vars_9 <= 0
 cc_alt_vars_7 <= 0
 cc_alt_vars_19 <= 0
 cc_alt_vars_2 <= 0
 cc_alt_vars_6 <= 0
 cc_alt_vars_3 <= 0
 cc_alt_vars_13 <= 0
 cc_alt_vars_16 <= 0
 cc_alt_vars_21 <= 0
 cc_alt_vars_11 <= 0
 cc_alt_vars_12 <= 0
 cc_alt_vars_5 <= 0
 cc_alt_vars_17 <= 0
Scenario 585
Bounds
 cc_alt_vars_22 <= 0
 cc_alt_vars_20 <= 0
 cc_alt_vars_9 <= 0
 cc_alt_vars_7 <= 0
 cc_alt_vars_19 <= 0
 cc_alt_vars_2 <= 0
 cc_alt_vars_0 <= 0
 cc_alt_vars_6 <= 0
 cc_alt_vars_3 <= 0
 cc_alt_vars_13 <= 0
 cc_alt_vars_16 <= 0
 cc_alt_vars_21 <= 0
 cc_alt_vars_11 <= 0
 cc_alt_vars_12 <= 0
 cc_alt_vars_5 <= 0
 cc_alt_vars_17 <= 0
Scenario 586
Bounds
 cc_alt_vars_1 <= 0
 cc_alt_vars_22 <= 0
 cc_alt_vars_20 <= 0
 cc_alt_vars_9 <= 0
 cc_alt_vars_7 <= 0
 cc_alt_vars_19 <= 0
 cc_alt_vars_0 <= 0
 cc_alt_vars_6 <= 0
 cc_alt_vars_3 <= 0
 cc_alt_vars_13 <= 0
 cc_alt_vars_16 <= 0
 cc_alt_vars_21 <= 0
 cc_alt_vars_11 <= 0
 cc_alt_vars_12 <= 0
 cc_alt_vars_5 <= 0
 cc_alt_vars_17 <= 0
Scenario 587
Bounds
 cc_alt_vars_1 <= 0
 cc_alt_vars_22 <= 0
 cc_alt_vars_20 <= 0
 cc_alt_vars_9 <= 0
 cc_alt_vars_7 <= 0
 cc_alt_vars_19 <= 0
 cc_alt_vars_2 <= 0
 cc_alt_vars_6 <= 0
 cc_alt_vars_3 <= 0
 cc_alt_vars_13 <= 0
 cc_alt_vars_16 <= 0
 cc_alt_vars_21 <= 0
 cc_alt_vars_11 <= 0
 cc_alt_vars_4 <= 0
 cc_alt_vars_12 <= 0
 cc_alt_vars_17 <= 0
Scenario 588
Bounds
 cc_alt_vars_22 <= 0
 cc_alt_vars_20 <= 0
 cc_alt_vars_9 <= 0
 cc_alt_vars_7 <= 0
 cc_alt_vars_19 <= 0
 cc_alt_vars_2 <= 0
 cc_alt_vars_0 <= 0
 cc_alt_vars_6 <= 0
 cc_alt_vars_3 <= 0
 cc_alt_vars_13 <= 0
 cc_alt_vars_16 <= 0
 cc_alt_vars_21 <= 0
 cc_alt_vars_11 <= 0
 cc_alt_vars_4 <= 0
 cc_alt_vars_12 <= 0
 cc_alt_vars_17 <= 0
Scenario 589
Bounds
 cc_alt_vars_1 <= 0
 cc_alt_vars_22 <= 0
 cc_alt_vars_20 <= 0
 cc_alt_vars_9 <= 0
 cc_alt_vars_7 <= 0
 cc_alt_vars_19 <= 0
 cc_alt_vars_0 <= 0
 cc_alt_vars_6 <= 0
 cc_alt_vars_3 <= 0
 cc_alt_vars_13 <= 0
 cc_alt_vars_16 <= 0
 cc_alt_vars_21 <= 0
 cc_alt_vars_11 <= 0
 cc_alt_vars_4 <= 0
 cc_alt_vars_12 <= 0
 cc_alt_vars_17 <= 0
Scenario 590
Bounds
 cc_alt_vars_1 <= 0
 cc_alt_vars_22 <= 0
 cc_alt_vars_20 <= 0
 cc_alt_vars_9 <= 0
 cc_alt_vars_8 <= 0
 cc_alt_vars_7 <= 0
 cc_alt_vars_19 <= 0
 cc_alt_vars_2 <= 0
 cc_alt_vars_13 <= 0
 cc_alt_vars_16 <= 0
 cc_alt_vars_21 <= 0
 cc_alt_vars_4 <= 0
 cc_alt_vars_12 <= 0
 cc_alt_vars_5 <= 0
 cc_alt_vars_10 <= 0
 cc_alt_vars_17 <= 0
Scenario 591
Bounds
 cc_alt_vars_22 <= 0
 cc_alt_vars_20 <= 0
 cc_alt_vars_9 <= 0
 cc_alt_vars_8 <= 0
 cc_alt_vars_7 <= 0
 cc_alt_vars_19 <= 0
 cc_alt_vars_2 <= 0
 cc_alt_vars_0 <= 0
 cc_alt_vars_13 <= 0
 cc_alt_vars_16 <= 0
 cc_alt_vars_21 <= 0
 cc_alt_vars_4 <= 0
 cc_alt_vars_12 <= 0
 cc_alt_vars_5 <= 0
 cc_alt_vars_10 <= 0
 cc_alt_vars_17 <= 0
Scenario 592
Bounds
 cc_alt_vars_1 <= 0
 cc_alt_vars_22 <= 0
 cc_alt_vars_20 <= 0
 cc_alt_vars_9 <= 0
 cc_alt_vars_8 <= 0
 cc_alt_vars_7 <= 0
 cc_alt_vars_19 <= 0
 cc_alt_vars_0 <= 0
 cc_alt_vars_13 <= 0
 cc_alt_vars_16 <= 0
 cc_alt_vars_21 <= 0
 cc_alt_vars_4 <= 0
 cc_alt_vars_12 <= 0
 cc_alt_vars_5 <= 0
 cc_alt_vars_10 <= 0
 cc_alt_vars_17 <= 0
Scenario 593
Bounds
 cc_alt_vars_1 <= 0
 cc_alt_vars_22 <= 0
 cc_alt_vars_20 <= 0
 cc_alt_vars_9 <= 0
 cc_alt_vars_8 <= 0
 cc_alt_vars_7 <= 0
 cc_alt_vars_19 <= 0
 cc_alt_vars_2 <= 0
 cc_alt_vars_3 <= 0
 cc_alt_vars_13 <= 0
 cc_alt_vars_16 <= 0
 cc_alt_vars_21 <= 0
 cc_alt_vars_12 <= 0
 cc_alt_vars_5 <= 0
 cc_alt_vars_10 <= 0
 cc_alt_vars_17 <= 0
Scenario 594
Bounds
 cc_alt_vars_22 <= 0
 cc_alt_vars_20 <= 0
 cc_alt_vars_9 <= 0
 cc_alt_vars_8 <= 0
 cc_alt_vars_7 <= 0
 cc_alt_vars_19 <= 0
 cc_alt_vars_2 <= 0
 cc_alt_vars_0 <= 0
 cc_alt_vars_3 <= 0
 cc_alt_vars_13 <= 0
 cc_alt_vars_16 <= 0
 cc_alt_vars_21 <= 0
 cc_alt_vars_12 <= 0
 cc_alt_vars_5 <= 0
 cc_alt_vars_10 <= 0
 cc_alt_vars_17 <= 0
Scenario 595
Bounds
 cc_alt_vars_1 <= 0
 cc_alt_vars_22 <= 0
 cc_alt_vars_20 <= 0
 cc_alt_vars_9 <= 0
 cc_alt_vars_8 <= 0
 cc_alt_vars_7 <= 0
 cc_alt_vars_19 <= 0
 cc_alt_vars_0 <= 0
 cc_alt_vars_3 <= 0
 cc_alt_vars_13 <= 0
 cc_alt_vars_16 <= 0
 cc_alt_vars_21 <= 0
 cc_alt_vars_12 <= 0
 cc_alt_vars_5 <= 0
 cc_alt_vars_10 <= 0
 cc_alt_vars_17 <= 0
Scenario 596
Bounds
 cc_alt_vars_1 <= 0
 cc_alt_vars_22 <= 0
 cc_alt_vars_20 <= 0
 cc_alt_vars_9 <= 0
 cc_alt_vars_8 <= 0
 cc_alt_vars_7 <= 0
 cc_alt_vars_19 <= 0
 cc_alt_vars_2 <= 0
 cc_alt_vars_3 <= 0
 cc_alt_vars_13 <= 0
 cc_alt_vars_16 <= 0
 cc_alt_vars_21 <= 0
 cc_alt_vars_4 <= 0
 cc_alt_vars_12 <= 0
 cc_alt_vars_10 <= 0
 cc_alt_vars_17 <= 0
Scenario 597
Bounds
 cc_alt_vars_22 <= 0
 cc_alt_vars_20 <= 0
 cc_alt_vars_9 <= 0
 cc_alt_vars_8 <= 0
 cc_alt_vars_7 <= 0
 cc_alt_vars_19 <= 0
 cc_alt_vars_2 <= 0
 cc_alt_vars_0 <= 0
 cc_alt_vars_3 <= 0
 cc_alt_vars_13 <= 0
 cc_alt_vars_16 <= 0
 cc_alt_vars_21 <= 0
 cc_alt_vars_4 <= 0
 cc_alt_vars_12 <= 0
 cc_alt_vars_10 <= 0
 cc_alt_vars_17 <= 0
Scenario 598
Bounds
 cc_alt_vars_1 <= 0
 cc_alt_vars_22 <= 0
 cc_alt_vars_20 <= 0
 cc_alt_vars_9 <= 0
 cc_alt_vars_8 <= 0
 cc_alt_vars_7 <= 0
 cc_alt_vars_19 <= 0
 cc_alt_vars_0 <= 0
 cc_alt_vars_3 <= 0
 cc_alt_vars_13 <= 0
 cc_alt_vars_16 <= 0
 cc_alt_vars_21 <= 0
 cc_alt_vars_4 <= 0
 cc_alt_vars_12 <= 0
 cc_alt_vars_10 <= 0
 cc_alt_vars_17 <= 0
Scenario 599
Bounds
 cc_alt_vars_1 <= 0
 cc_alt_vars_22 <= 0
 cc_alt_vars_20 <= 0
 cc_alt_vars_9 <= 0
 cc_alt_vars_8 <= 0
 cc_alt_vars_19 <= 0
 cc_alt_vars_2 <= 0
 cc_alt_vars_6 <= 0
 cc_alt_vars_13 <= 0
 cc_alt_vars_16 <= 0
 cc_alt_vars_21 <= 0
 cc_alt_vars_4 <= 0
 cc_alt_vars_12 <= 0
 cc_alt_vars_5 <= 0
 cc_alt_vars_10 <= 0
 cc_alt_vars_17 <= 0
Scenario 600
Bounds
 cc_alt_vars_22 <= 0
 cc_alt_vars_20 <= 0
 cc_alt_vars_9 <= 0
 cc_alt_vars_8 <= 0
 cc_alt_vars_19 <= 0
 cc_alt_vars_2 <= 0
 cc_alt_vars_0 <= 0
 cc_alt_vars_6 <= 0
 cc_alt_vars_13 <= 0
 cc_alt_vars_16 <= 0
 cc_alt_vars_21 <= 0
 cc_alt_vars_4 <= 0
 cc_alt_vars_12 <= 0
 cc_alt_vars_5 <= 0
 cc_alt_vars_10 <= 0
 cc_alt_vars_17 <= 0
Scenario 601
Bounds
 cc_alt_vars_1 <= 0
 cc_alt_vars_22 <= 0
 cc_alt_vars_20 <= 0
 cc_alt_vars_9 <= 0
 cc_alt_vars_8 <= 0
 cc_alt_vars_19 <= 0
 cc_alt_vars_0 <= 0
 cc_alt_vars_6 <= 0
 cc_alt_vars_13 <= 0
 cc_alt_vars_16 <= 0
 cc_alt_vars_21 <= 0
 cc_alt_vars_4 <= 0
 cc_alt_vars_12 <= 0
 cc_alt_vars_5 <= 0
 cc_alt_vars_10 <= 0
 cc_alt_vars_17 <= 0
Scenario 602
Bounds
 cc_alt_vars_1 <= 0
 cc_alt_vars_22 <= 0
 cc_alt_vars_20 <= 0
 cc_alt_vars_9 <= 0
 cc_alt_vars_8 <= 0
 cc_alt_vars_19 <= 0
 cc_alt_vars_2 <= 0
 cc_alt_vars_6 <= 0
 cc_alt_vars_3 <= 0
 cc_alt_vars_13 <= 0
 cc_alt_vars_16 <= 0
 cc_alt_vars_21 <= 0
 cc_alt_vars_12 <= 0
 cc_alt_vars_5 <= 0
 cc_alt_vars_10 <= 0
 cc_alt_vars_17 <= 0
Scenario 603
Bounds
 cc_alt_vars_22 <= 0
 cc_alt_vars_20 <= 0
 cc_alt_vars_9 <= 0
 cc_alt_vars_8 <= 0
 cc_alt_vars_19 <= 0
 cc_alt_vars_2 <= 0
 cc_alt_vars_0 <= 0
 cc_alt_vars_6 <= 0
 cc_alt_vars_3 <= 0
 cc_alt_vars_13 <= 0
 cc_alt_vars_16 <= 0
 cc_alt_vars_21 <= 0
 cc_alt_vars_12 <= 0
 cc_alt_vars_5 <= 0
 cc_alt_vars_10 <= 0
 cc_alt_vars_17 <= 0
Scenario 604
Bounds
 cc_alt_vars_1 <= 0
 cc_alt_vars_22 <= 0
 cc_alt_vars_20 <= 0
 cc_alt_vars_9 <= 0
 cc_alt_vars_8 <= 0
 cc_alt_vars_19 <= 0
 cc_alt_vars_0 <= 0
 cc_alt_vars_6 <= 0
 cc_alt_vars_3 <= 0
 cc_alt_vars_13 <= 0
 cc_alt_vars_16 <= 0
 cc_alt_vars_21 <= 0
 cc_alt_vars_12 <= 0
 cc_alt_vars_5 <= 0
 cc_alt_vars_10 <= 0
 cc_alt_vars_17 <= 0
Scenario 605
Bounds
 cc_alt_vars_1 <= 0
 cc_alt_vars_22 <= 0
 cc_alt_vars_20 <= 0
 cc_alt_vars_9 <= 0
 cc_alt_vars_8 <= 0
 cc_alt_vars_19 <= 0
 cc_alt_vars_2 <= 0
 cc_alt_vars_6 <= 0
 cc_alt_vars_3 <= 0
 cc_alt_vars_13 <= 0
 cc_alt_vars_16 <= 0
 cc_alt_vars_21 <= 0
 cc_alt_vars_4 <= 0
 cc_alt_vars_12 <= 0
 cc_alt_vars_10 <= 0
 cc_alt_vars_17 <= 0
Scenario 606
Bounds
 cc_alt_vars_22 <= 0
 cc_alt_vars_20 <= 0
 cc_alt_vars_9 <= 0
 cc_alt_vars_8 <= 0
 cc_alt_vars_19 <= 0
 cc_alt_vars_2 <= 0
 cc_alt_vars_0 <= 0
 cc_alt_vars_6 <= 0
 cc_alt_vars_3 <= 0
 cc_alt_vars_13 <= 0
 cc_alt_vars_16 <= 0
 cc_alt_vars_21 <= 0
 cc_alt_vars_4 <= 0
 cc_alt_vars_12 <= 0
 cc_alt_vars_10 <= 0
 cc_alt_vars_17 <= 0
Scenario 607
Bounds
 cc_alt_vars_1 <= 0
 cc_alt_vars_22 <= 0
 cc_alt_vars_20 <= 0
 cc_alt_vars_9 <= 0
 cc_alt_vars_8 <= 0
 cc_alt_vars_19 <= 0
 cc_alt_vars_0 <= 0
 cc_alt_vars_6 <= 0
 cc_alt_vars_3 <= 0
 cc_alt_vars_13 <= 0
 cc_alt_vars_16 <= 0
 cc_alt_vars_21 <= 0
 cc_alt_vars_4 <= 0
 cc_alt_vars_12 <= 0
 cc_alt_vars_10 <= 0
 cc_alt_vars_17 <= 0
Scenario 608
Bounds
 cc_alt_vars_1 <= 0
 cc_alt_vars_22 <= 0
 cc_alt_vars_20 <= 0
 cc_alt_vars_9 <= 0
 cc_alt_vars_7 <= 0
 cc_alt_vars_19 <= 0
 cc_alt_vars_2 <= 0
 cc_alt_vars_6 <= 0
 cc_alt_vars_13 <= 0
 cc_alt_vars_16 <= 0
 cc_alt_vars_21 <= 0
 cc_alt_vars_4 <= 0
 cc_alt_vars_12 <= 0
 cc_alt_vars_5 <= 0
 cc_alt_vars_10 <= 0
 cc_alt_vars_17 <= 0
Scenario 609
Bounds
 cc_alt_vars_22 <= 0
 cc_alt_vars_20 <= 0
 cc_alt_vars_9 <= 0
 cc_alt_vars_7 <= 0
 cc_alt_vars_19 <= 0
 cc_alt_vars_2 <= 0
 cc_alt_vars_0 <= 0
 cc_alt_vars_6 <= 0
 cc_alt_vars_13 <= 0
 cc_alt_vars_16 <= 0
 cc_alt_vars_21 <= 0
 cc_alt_vars_4 <= 0
 cc_alt_vars_12 <= 0
 cc_alt_vars_5 <= 0
 cc_alt_vars_10 <= 0
 cc_alt_vars_17 <= 0
Scenario 610
Bounds
 cc_alt_vars_1 <= 0
 cc_alt_vars_22 <= 0
 cc_alt_vars_20 <= 0
 cc_alt_vars_9 <= 0
 cc_alt_vars_7 <= 0
 cc_alt_vars_19 <= 0
 cc_alt_vars_0 <= 0
 cc_alt_vars_6 <= 0
 cc_alt_vars_13 <= 0
 cc_alt_vars_16 <= 0
 cc_alt_vars_21 <= 0
 cc_alt_vars_4 <= 0
 cc_alt_vars_12 <= 0
 cc_alt_vars_5 <= 0
 cc_alt_vars_10 <= 0
 cc_alt_vars_17 <= 0
Scenario 611
Bounds
 cc_alt_vars_1 <= 0
 cc_alt_vars_22 <= 0
 cc_alt_vars_20 <= 0
 cc_alt_vars_9 <= 0
 cc_alt_vars_7 <= 0
 cc_alt_vars_19 <= 0
 cc_alt_vars_2 <= 0
 cc_alt_vars_6 <= 0
 cc_alt_vars_3 <= 0
 cc_alt_vars_13 <= 0
 cc_alt_vars_16 <= 0
 cc_alt_vars_21 <= 0
 cc_alt_vars_12 <= 0
 cc_alt_vars_5 <= 0
 cc_alt_vars_10 <= 0
 cc_alt_vars_17 <= 0
Scenario 612
Bounds
 cc_alt_vars_22 <= 0
 cc_alt_vars_20 <= 0
 cc_alt_vars_9 <= 0
 cc_alt_vars_7 <= 0
 cc_alt_vars_19 <= 0
 cc_alt_vars_2 <= 0
 cc_alt_vars_0 <= 0
 cc_alt_vars_6 <= 0
 cc_alt_vars_3 <= 0
 cc_alt_vars_13 <= 0
 cc_alt_vars_16 <= 0
 cc_alt_vars_21 <= 0
 cc_alt_vars_12 <= 0
 cc_alt_vars_5 <= 0
 cc_alt_vars_10 <= 0
 cc_alt_vars_17 <= 0
Scenario 613
Bounds
 cc_alt_vars_1 <= 0
 cc_alt_vars_22 <= 0
 cc_alt_vars_20 <= 0
 cc_alt_vars_9 <= 0
 cc_alt_vars_7 <= 0
 cc_alt_vars_19 <= 0
 cc_alt_vars_0 <= 0
 cc_alt_vars_6 <= 0
 cc_alt_vars_3 <= 0
 cc_alt_vars_13 <= 0
 cc_alt_vars_16 <= 0
 cc_alt_vars_21 <= 0
 cc_alt_vars_12 <= 0
 cc_alt_vars_5 <= 0
 cc_alt_vars_10 <= 0
 cc_alt_vars_17 <= 0
Scenario 614
Bounds
 cc_alt_vars_1 <= 0
 cc_alt_vars_22 <= 0
 cc_alt_vars_20 <= 0
 cc_alt_vars_9 <= 0
 cc_alt_vars_7 <= 0
 cc_alt_vars_19 <= 0
 cc_alt_vars_2 <= 0
 cc_alt_vars_6 <= 0
 cc_alt_vars_3 <= 0
 cc_alt_vars_13 <= 0
 cc_alt_vars_16 <= 0
 cc_alt_vars_21 <= 0
 cc_alt_vars_4 <= 0
 cc_alt_vars_12 <= 0
 cc_alt_vars_10 <= 0
 cc_alt_vars_17 <= 0
Scenario 615
Bounds
 cc_alt_vars_22 <= 0
 cc_alt_vars_20 <= 0
 cc_alt_vars_9 <= 0
 cc_alt_vars_7 <= 0
 cc_alt_vars_19 <= 0
 cc_alt_vars_2 <= 0
 cc_alt_vars_0 <= 0
 cc_alt_vars_6 <= 0
 cc_alt_vars_3 <= 0
 cc_alt_vars_13 <= 0
 cc_alt_vars_16 <= 0
 cc_alt_vars_21 <= 0
 cc_alt_vars_4 <= 0
 cc_alt_vars_12 <= 0
 cc_alt_vars_10 <= 0
 cc_alt_vars_17 <= 0
Scenario 616
Bounds
 cc_alt_vars_1 <= 0
 cc_alt_vars_22 <= 0
 cc_alt_vars_20 <= 0
 cc_alt_vars_9 <= 0
 cc_alt_vars_7 <= 0
 cc_alt_vars_19 <= 0
 cc_alt_vars_0 <= 0
 cc_alt_vars_6 <= 0
 cc_alt_vars_3 <= 0
 cc_alt_vars_13 <= 0
 cc_alt_vars_16 <= 0
 cc_alt_vars_21 <= 0
 cc_alt_vars_4 <= 0
 cc_alt_vars_12 <= 0
 cc_alt_vars_10 <= 0
 cc_alt_vars_17 <= 0
Scenario 617
Bounds
 cc_alt_vars_1 <= 0
 cc_alt_vars_22 <= 0
 cc_alt_vars_20 <= 0
 cc_alt_vars_8 <= 0
 cc_alt_vars_7 <= 0
 cc_alt_vars_15 <= 0
 cc_alt_vars_19 <= 0
 cc_alt_vars_2 <= 0
 cc_alt_vars_13 <= 0
 cc_alt_vars_14 <= 0
 cc_alt_vars_21 <= 0
 cc_alt_vars_11 <= 0
 cc_alt_vars_4 <= 0
 cc_alt_vars_5 <= 0
 cc_alt_vars_10 <= 0
 cc_alt_vars_17 <= 0
Scenario 618
Bounds
 cc_alt_vars_22 <= 0
 cc_alt_vars_20 <= 0
 cc_alt_vars_8 <= 0
 cc_alt_vars_7 <= 0
 cc_alt_vars_15 <= 0
 cc_alt_vars_19 <= 0
 cc_alt_vars_2 <= 0
 cc_alt_vars_0 <= 0
 cc_alt_vars_13 <= 0
 cc_alt_vars_14 <= 0
 cc_alt_vars_21 <= 0
 cc_alt_vars_11 <= 0
 cc_alt_vars_4 <= 0
 cc_alt_vars_5 <= 0
 cc_alt_vars_10 <= 0
 cc_alt_vars_17 <= 0
Scenario 619
Bounds
 cc_alt_vars_1 <= 0
 cc_alt_vars_22 <= 0
 cc_alt_vars_20 <= 0
 cc_alt_vars_8 <= 0
 cc_alt_vars_7 <= 0
 cc_alt_vars_15 <= 0
 cc_alt_vars_19 <= 0
 cc_alt_vars_0 <= 0
 cc_alt_vars_13 <= 0
 cc_alt_vars_14 <= 0
 cc_alt_vars_21 <= 0
 cc_alt_vars_11 <= 0
 cc_alt_vars_4 <= 0
 cc_alt_vars_5 <= 0
 cc_alt_vars_10 <= 0
 cc_alt_vars_17 <= 0
Scenario 620
Bounds
 cc_alt_vars_1 <= 0
 cc_alt_vars_22 <= 0
 cc_alt_vars_20 <= 0
 cc_alt_vars_8 <= 0
 cc_alt_vars_7 <= 0
 cc_alt_vars_15 <= 0
 cc_alt_vars_19 <= 0
 cc_alt_vars_2 <= 0
 cc_alt_vars_3 <= 0
 cc_alt_vars_13 <= 0
 cc_alt_vars_14 <= 0
 cc_alt_vars_21 <= 0
 cc_alt_vars_11 <= 0
 cc_alt_vars_5 <= 0
 cc_alt_vars_10 <= 0
 cc_alt_vars_17 <= 0
Scenario 621
Bounds
 cc_alt_vars_22 <= 0
 cc_alt_vars_20 <= 0
 cc_alt_vars_8 <= 0
 cc_alt_vars_7 <= 0
 cc_alt_vars_15 <= 0
 cc_alt_vars_19 <= 0
 cc_alt_vars_2 <= 0
 cc_alt_vars_0 <= 0
 cc_alt_vars_3 <= 0
 cc_alt_vars_13 <= 0
 cc_alt_vars_14 <= 0
 cc_alt_vars_21 <= 0
 cc_alt_vars_11 <= 0
 cc_alt_vars_5 <= 0
 cc_alt_vars_10 <= 0
 cc_alt_vars_17 <= 0
Scenario 622
Bounds
 cc_alt_vars_1 <= 0
 cc_alt_vars_22 <= 0
 cc_alt_vars_20 <= 0
 cc_alt_vars_8 <= 0
 cc_alt_vars_7 <= 0
 cc_alt_vars_15 <= 0
 cc_alt_vars_19 <= 0
 cc_alt_vars_0 <= 0
 cc_alt_vars_3 <= 0
 cc_alt_vars_13 <= 0
 cc_alt_vars_14 <= 0
 cc_alt_vars_21 <= 0
 cc_alt_vars_11 <= 0
 cc_alt_vars_5 <= 0
 cc_alt_vars_10 <= 0
 cc_alt_vars_17 <= 0
Scenario 623
Bounds
 cc_alt_vars_1 <= 0
 cc_alt_vars_22 <= 0
 cc_alt_vars_20 <= 0
 cc_alt_vars_8 <= 0
 cc_alt_vars_7 <= 0
 cc_alt_vars_15 <= 0
 cc_alt_vars_19 <= 0
 cc_alt_vars_2 <= 0
 cc_alt_vars_3 <= 0
 cc_alt_vars_13 <= 0
 cc_alt_vars_14 <= 0
 cc_alt_vars_21 <= 0
 cc_alt_vars_11 <= 0
 cc_alt_vars_4 <= 0
 cc_alt_vars_10 <= 0
 cc_alt_vars_17 <= 0
Scenario 624
Bounds
 cc_alt_vars_22 <= 0
 cc_alt_vars_20 <= 0
 cc_alt_vars_8 <= 0
 cc_alt_vars_7 <= 0
 cc_alt_vars_15 <= 0
 cc_alt_vars_19 <= 0
 cc_alt_vars_2 <= 0
 cc_alt_vars_0 <= 0
 cc_alt_vars_3 <= 0
 cc_alt_vars_13 <= 0
 cc_alt_vars_14 <= 0
 cc_alt_vars_21 <= 0
 cc_alt_vars_11 <= 0
 cc_alt_vars_4 <= 0
 cc_alt_vars_10 <= 0
 cc_alt_vars_17 <= 0
Scenario 625
Bounds
 cc_alt_vars_1 <= 0
 cc_alt_vars_22 <= 0
 cc_alt_vars_20 <= 0
 cc_alt_vars_8 <= 0
 cc_alt_vars_7 <= 0
 cc_alt_vars_15 <= 0
 cc_alt_vars_19 <= 0
 cc_alt_vars_0 <= 0
 cc_alt_vars_3 <= 0
 cc_alt_vars_13 <= 0
 cc_alt_vars_14 <= 0
 cc_alt_vars_21 <= 0
 cc_alt_vars_11 <= 0
 cc_alt_vars_4 <= 0
 cc_alt_vars_10 <= 0
 cc_alt_vars_17 <= 0
Scenario 626
Bounds
 cc_alt_vars_1 <= 0
 cc_alt_vars_22 <= 0
 cc_alt_vars_20 <= 0
 cc_alt_vars_8 <= 0
 cc_alt_vars_15 <= 0
 cc_alt_vars_19 <= 0
 cc_alt_vars_2 <= 0
 cc_alt_vars_6 <= 0
 cc_alt_vars_13 <= 0
 cc_alt_vars_14 <= 0
 cc_alt_vars_21 <= 0
 cc_alt_vars_11 <= 0
 cc_alt_vars_4 <= 0
 cc_alt_vars_5 <= 0
 cc_alt_vars_10 <= 0
 cc_alt_vars_17 <= 0
Scenario 627
Bounds
 cc_alt_vars_22 <= 0
 cc_alt_vars_20 <= 0
 cc_alt_vars_8 <= 0
 cc_alt_vars_15 <= 0
 cc_alt_vars_19 <= 0
 cc_alt_vars_2 <= 0
 cc_alt_vars_0 <= 0
 cc_alt_vars_6 <= 0
 cc_alt_vars_13 <= 0
 cc_alt_vars_14 <= 0
 cc_alt_vars_21 <= 0
 cc_alt_vars_11 <= 0
 cc_alt_vars_4 <= 0
 cc_alt_vars_5 <= 0
 cc_alt_vars_10 <= 0
 cc_alt_vars_17 <= 0
Scenario 628
Bounds
 cc_alt_vars_1 <= 0
 cc_alt_vars_22 <= 0
 cc_alt_vars_20 <= 0
 cc_alt_vars_8 <= 0
 cc_alt_vars_15 <= 0
 cc_alt_vars_19 <= 0
 cc_alt_vars_0 <= 0
 cc_alt_vars_6 <= 0
 cc_alt_vars_13 <= 0
 cc_alt_vars_14 <= 0
 cc_alt_vars_21 <= 0
 cc_alt_vars_11 <= 0
 cc_alt_vars_4 <= 0
 cc_alt_vars_5 <= 0
 cc_alt_vars_10 <= 0
 cc_alt_vars_17 <= 0
Scenario 629
Bounds
 cc_alt_vars_1 <= 0
 cc_alt_vars_22 <= 0
 cc_alt_vars_20 <= 0
 cc_alt_vars_8 <= 0
 cc_alt_vars_15 <= 0
 cc_alt_vars_19 <= 0
 cc_alt_vars_2 <= 0
 cc_alt_vars_6 <= 0
 cc_alt_vars_3 <= 0
 cc_alt_vars_13 <= 0
 cc_alt_vars_14 <= 0
 cc_alt_vars_21 <= 0
 cc_alt_vars_11 <= 0
 cc_alt_vars_5 <= 0
 cc_alt_vars_10 <= 0
 cc_alt_vars_17 <= 0
Scenario 630
Bounds
 cc_alt_vars_22 <= 0
 cc_alt_vars_20 <= 0
 cc_alt_vars_8 <= 0
 cc_alt_vars_15 <= 0
 cc_alt_vars_19 <= 0
 cc_alt_vars_2 <= 0
 cc_alt_vars_0 <= 0
 cc_alt_vars_6 <= 0
 cc_alt_vars_3 <= 0
 cc_alt_vars_13 <= 0
 cc_alt_vars_14 <= 0
 cc_alt_vars_21 <= 0
 cc_alt_vars_11 <= 0
 cc_alt_vars_5 <= 0
 cc_alt_vars_10 <= 0
 cc_alt_vars_17 <= 0
Scenario 631
Bounds
 cc_alt_vars_1 <= 0
 cc_alt_vars_22 <= 0
 cc_alt_vars_20 <= 0
 cc_alt_vars_8 <= 0
 cc_alt_vars_15 <= 0
 cc_alt_vars_19 <= 0
 cc_alt_vars_0 <= 0
 cc_alt_vars_6 <= 0
 cc_alt_vars_3 <= 0
 cc_alt_vars_13 <= 0
 cc_alt_vars_14 <= 0
 cc_alt_vars_21 <= 0
 cc_alt_vars_11 <= 0
 cc_alt_vars_5 <= 0
 cc_alt_vars_10 <= 0
 cc_alt_vars_17 <= 0
Scenario 632
Bounds
 cc_alt_vars_1 <= 0
 cc_alt_vars_22 <= 0
 cc_alt_vars_20 <= 0
 cc_alt_vars_8 <= 0
 cc_alt_vars_15 <= 0
 cc_alt_vars_19 <= 0
 cc_alt_vars_2 <= 0
 cc_alt_vars_6 <= 0
 cc_alt_vars_3 <= 0
 cc_alt_vars_13 <= 0
 cc_alt_vars_14 <= 0
 cc_alt_vars_21 <= 0
 cc_alt_vars_11 <= 0
 cc_alt_vars_4 <= 0
 cc_alt_vars_10 <= 0
 cc_alt_vars_17 <= 0
Scenario 633
Bounds
 cc_alt_vars_22 <= 0
 cc_alt_vars_20 <= 0
 cc_alt_vars_8 <= 0
 cc_alt_vars_15 <= 0
 cc_alt_vars_19 <= 0
 cc_alt_vars_2 <= 0
 cc_alt_vars_0 <= 0
 cc_alt_vars_6 <= 0
 cc_alt_vars_3 <= 0
 cc_alt_vars_13 <= 0
 cc_alt_vars_14 <= 0
 cc_alt_vars_21 <= 0
 cc_alt_vars_11 <= 0
 cc_alt_vars_4 <= 0
 cc_alt_vars_10 <= 0
 cc_alt_vars_17 <= 0
Scenario 634
Bounds
 cc_alt_vars_1 <= 0
 cc_alt_vars_22 <= 0
 cc_alt_vars_20 <= 0
 cc_alt_vars_8 <= 0
 cc_alt_vars_15 <= 0
 cc_alt_vars_19 <= 0
 cc_alt_vars_0 <= 0
 cc_alt_vars_6 <= 0
 cc_alt_vars_3 <= 0
 cc_alt_vars_13 <= 0
 cc_alt_vars_14 <= 0
 cc_alt_vars_21 <= 0
 cc_alt_vars_11 <= 0
 cc_alt_vars_4 <= 0
 cc_alt_vars_10 <= 0
 cc_alt_vars_17 <= 0
Scenario 635
Bounds
 cc_alt_vars_1 <= 0
 cc_alt_vars_22 <= 0
 cc_alt_vars_20 <= 0
 cc_alt_vars_7 <= 0
 cc_alt_vars_15 <= 0
 cc_alt_vars_19 <= 0
 cc_alt_vars_2 <= 0
 cc_alt_vars_6 <= 0
 cc_alt_vars_13 <= 0
 cc_alt_vars_14 <= 0
 cc_alt_vars_21 <= 0
 cc_alt_vars_11 <= 0
 cc_alt_vars_4 <= 0
 cc_alt_vars_5 <= 0
 cc_alt_vars_10 <= 0
 cc_alt_vars_17 <= 0
Scenario 636
Bounds
 cc_alt_vars_22 <= 0
 cc_alt_vars_20 <= 0
 cc_alt_vars_7 <= 0
 cc_alt_vars_15 <= 0
 cc_alt_vars_19 <= 0
 cc_alt_vars_2 <= 0
 cc_alt_vars_0 <= 0
 cc_alt_vars_6 <= 0
 cc_alt_vars_13 <= 0
 cc_alt_vars_14 <= 0
 cc_alt_vars_21 <= 0
 cc_alt_vars_11 <= 0
 cc_alt_vars_4 <= 0
 cc_alt_vars_5 <= 0
 cc_alt_vars_10 <= 0
 cc_alt_vars_17 <= 0
Scenario 637
Bounds
 cc_alt_vars_1 <= 0
 cc_alt_vars_22 <= 0
 cc_alt_vars_20 <= 0
 cc_alt_vars_7 <= 0
 cc_alt_vars_15 <= 0
 cc_alt_vars_19 <= 0
 cc_alt_vars_0 <= 0
 cc_alt_vars_6 <= 0
 cc_alt_vars_13 <= 0
 cc_alt_vars_14 <= 0
 cc_alt_vars_21 <= 0
 cc_alt_vars_11 <= 0
 cc_alt_vars_4 <= 0
 cc_alt_vars_5 <= 0
 cc_alt_vars_10 <= 0
 cc_alt_vars_17 <= 0
Scenario 638
Bounds
 cc_alt_vars_1 <= 0
 cc_alt_vars_22 <= 0
 cc_alt_vars_20 <= 0
 cc_alt_vars_7 <= 0
 cc_alt_vars_15 <= 0
 cc_alt_vars_19 <= 0
 cc_alt_vars_2 <= 0
 cc_alt_vars_6 <= 0
 cc_alt_vars_3 <= 0
 cc_alt_vars_13 <= 0
 cc_alt_vars_14 <= 0
 cc_alt_vars_21 <= 0
 cc_alt_vars_11 <= 0
 cc_alt_vars_5 <= 0
 cc_alt_vars_10 <= 0
 cc_alt_vars_17 <= 0
Scenario 639
Bounds
 cc_alt_vars_22 <= 0
 cc_alt_vars_20 <= 0
 cc_alt_vars_7 <= 0
 cc_alt_vars_15 <= 0
 cc_alt_vars_19 <= 0
 cc_alt_vars_2 <= 0
 cc_alt_vars_0 <= 0
 cc_alt_vars_6 <= 0
 cc_alt_vars_3 <= 0
 cc_alt_vars_13 <= 0
 cc_alt_vars_14 <= 0
 cc_alt_vars_21 <= 0
 cc_alt_vars_11 <= 0
 cc_alt_vars_5 <= 0
 cc_alt_vars_10 <= 0
 cc_alt_vars_17 <= 0
Scenario 640
Bounds
 cc_alt_vars_1 <= 0
 cc_alt_vars_22 <= 0
 cc_alt_vars_20 <= 0
 cc_alt_vars_7 <= 0
 cc_alt_vars_15 <= 0
 cc_alt_vars_19 <= 0
 cc_alt_vars_0 <= 0
 cc_alt_vars_6 <= 0
 cc_alt_vars_3 <= 0
 cc_alt_vars_13 <= 0
 cc_alt_vars_14 <= 0
 cc_alt_vars_21 <= 0
 cc_alt_vars_11 <= 0
 cc_alt_vars_5 <= 0
 cc_alt_vars_10 <= 0
 cc_alt_vars_17 <= 0
Scenario 641
Bounds
 cc_alt_vars_1 <= 0
 cc_alt_vars_22 <= 0
 cc_alt_vars_20 <= 0
 cc_alt_vars_7 <= 0
 cc_alt_vars_15 <= 0
 cc_alt_vars_19 <= 0
 cc_alt_vars_2 <= 0
 cc_alt_vars_6 <= 0
 cc_alt_vars_3 <= 0
 cc_alt_vars_13 <= 0
 cc_alt_vars_14 <= 0
 cc_alt_vars_21 <= 0
 cc_alt_vars_11 <= 0
 cc_alt_vars_4 <= 0
 cc_alt_vars_10 <= 0
 cc_alt_vars_17 <= 0
Scenario 642
Bounds
 cc_alt_vars_22 <= 0
 cc_alt_vars_20 <= 0
 cc_alt_vars_7 <= 0
 cc_alt_vars_15 <= 0
 cc_alt_vars_19 <= 0
 cc_alt_vars_2 <= 0
 cc_alt_vars_0 <= 0
 cc_alt_vars_6 <= 0
 cc_alt_vars_3 <= 0
 cc_alt_vars_13 <= 0
 cc_alt_vars_14 <= 0
 cc_alt_vars_21 <= 0
 cc_alt_vars_11 <= 0
 cc_alt_vars_4 <= 0
 cc_alt_vars_10 <= 0
 cc_alt_vars_17 <= 0
Scenario 643
Bounds
 cc_alt_vars_1 <= 0
 cc_alt_vars_22 <= 0
 cc_alt_vars_20 <= 0
 cc_alt_vars_7 <= 0
 cc_alt_vars_15 <= 0
 cc_alt_vars_19 <= 0
 cc_alt_vars_0 <= 0
 cc_alt_vars_6 <= 0
 cc_alt_vars_3 <= 0
 cc_alt_vars_13 <= 0
 cc_alt_vars_14 <= 0
 cc_alt_vars_21 <= 0
 cc_alt_vars_11 <= 0
 cc_alt_vars_4 <= 0
 cc_alt_vars_10 <= 0
 cc_alt_vars_17 <= 0
Scenario 644
Bounds
 cc_alt_vars_1 <= 0
 cc_alt_vars_22 <= 0
 cc_alt_vars_20 <= 0
 cc_alt_vars_9 <= 0
 cc_alt_vars_8 <= 0
 cc_alt_vars_7 <= 0
 cc_alt_vars_15 <= 0
 cc_alt_vars_19 <= 0
 cc_alt_vars_2 <= 0
 cc_alt_vars_13 <= 0
 cc_alt_vars_14 <= 0
 cc_alt_vars_21 <= 0
 cc_alt_vars_11 <= 0
 cc_alt_vars_4 <= 0
 cc_alt_vars_5 <= 0
 cc_alt_vars_17 <= 0
Scenario 645
Bounds
 cc_alt_vars_22 <= 0
 cc_alt_vars_20 <= 0
 cc_alt_vars_9 <= 0
 cc_alt_vars_8 <= 0
 cc_alt_vars_7 <= 0
 cc_alt_vars_15 <= 0
 cc_alt_vars_19 <= 0
 cc_alt_vars_2 <= 0
 cc_alt_vars_0 <= 0
 cc_alt_vars_13 <= 0
 cc_alt_vars_14 <= 0
 cc_alt_vars_21 <= 0
 cc_alt_vars_11 <= 0
 cc_alt_vars_4 <= 0
 cc_alt_vars_5 <= 0
 cc_alt_vars_17 <= 0
Scenario 646
Bounds
 cc_alt_vars_1 <= 0
 cc_alt_vars_22 <= 0
 cc_alt_vars_20 <= 0
 cc_alt_vars_9 <= 0
 cc_alt_vars_8 <= 0
 cc_alt_vars_7 <= 0
 cc_alt_vars_15 <= 0
 cc_alt_vars_19 <= 0
 cc_alt_vars_0 <= 0
 cc_alt_vars_13 <= 0
 cc_alt_vars_14 <= 0
 cc_alt_vars_21 <= 0
 cc_alt_vars_11 <= 0
 cc_alt_vars_4 <= 0
 cc_alt_vars_5 <= 0
 cc_alt_vars_17 <= 0
Scenario 647
Bounds
 cc_alt_vars_1 <= 0
 cc_alt_vars_22 <= 0
 cc_alt_vars_20 <= 0
 cc_alt_vars_9 <= 0
 cc_alt_vars_8 <= 0
 cc_alt_vars_7 <= 0
 cc_alt_vars_15 <= 0
 cc_alt_vars_19 <= 0
 cc_alt_vars_2 <= 0
 cc_alt_vars_3 <= 0
 cc_alt_vars_13 <= 0
 cc_alt_vars_14 <= 0
 cc_alt_vars_21 <= 0
 cc_alt_vars_11 <= 0
 cc_alt_vars_5 <= 0
 cc_alt_vars_17 <= 0
Scenario 648
Bounds
 cc_alt_vars_22 <= 0
 cc_alt_vars_20 <= 0
 cc_alt_vars_9 <= 0
 cc_alt_vars_8 <= 0
 cc_alt_vars_7 <= 0
 cc_alt_vars_15 <= 0
 cc_alt_vars_19 <= 0
 cc_alt_vars_2 <= 0
 cc_alt_vars_0 <= 0
 cc_alt_vars_3 <= 0
 cc_alt_vars_13 <= 0
 cc_alt_vars_14 <= 0
 cc_alt_vars_21 <= 0
 cc_alt_vars_11 <= 0
 cc_alt_vars_5 <= 0
 cc_alt_vars_17 <= 0
Scenario 649
Bounds
 cc_alt_vars_1 <= 0
 cc_alt_vars_22 <= 0
 cc_alt_vars_20 <= 0
 cc_alt_vars_9 <= 0
 cc_alt_vars_8 <= 0
 cc_alt_vars_7 <= 0
 cc_alt_vars_15 <= 0
 cc_alt_vars_19 <= 0
 cc_alt_vars_0 <= 0
 cc_alt_vars_3 <= 0
 cc_alt_vars_13 <= 0
 cc_alt_vars_14 <= 0
 cc_alt_vars_21 <= 0
 cc_alt_vars_11 <= 0
 cc_alt_vars_5 <= 0
 cc_alt_vars_17 <= 0
Scenario 650
Bounds
 cc_alt_vars_1 <= 0
 cc_alt_vars_22 <= 0
 cc_alt_vars_20 <= 0
 cc_alt_vars_9 <= 0
 cc_alt_vars_8 <= 0
 cc_alt_vars_7 <= 0
 cc_alt_vars_15 <= 0
 cc_alt_vars_19 <= 0
 cc_alt_vars_2 <= 0
 cc_alt_vars_3 <= 0
 cc_alt_vars_13 <= 0
 cc_alt_vars_14 <= 0
 cc_alt_vars_21 <= 0
 cc_alt_vars_11 <= 0
 cc_alt_vars_4 <= 0
 cc_alt_vars_17 <= 0
Scenario 651
Bounds
 cc_alt_vars_22 <= 0
 cc_alt_vars_20 <= 0
 cc_alt_vars_9 <= 0
 cc_alt_vars_8 <= 0
 cc_alt_vars_7 <= 0
 cc_alt_vars_15 <= 0
 cc_alt_vars_19 <= 0
 cc_alt_vars_2 <= 0
 cc_alt_vars_0 <= 0
 cc_alt_vars_3 <= 0
 cc_alt_vars_13 <= 0
 cc_alt_vars_14 <= 0
 cc_alt_vars_21 <= 0
 cc_alt_vars_11 <= 0
 cc_alt_vars_4 <= 0
 cc_alt_vars_17 <= 0
Scenario 652
Bounds
 cc_alt_vars_1 <= 0
 cc_alt_vars_22 <= 0
 cc_alt_vars_20 <= 0
 cc_alt_vars_9 <= 0
 cc_alt_vars_8 <= 0
 cc_alt_vars_7 <= 0
 cc_alt_vars_15 <= 0
 cc_alt_vars_19 <= 0
 cc_alt_vars_0 <= 0
 cc_alt_vars_3 <= 0
 cc_alt_vars_13 <= 0
 cc_alt_vars_14 <= 0
 cc_alt_vars_21 <= 0
 cc_alt_vars_11 <= 0
 cc_alt_vars_4 <= 0
 cc_alt_vars_17 <= 0
Scenario 653
Bounds
 cc_alt_vars_1 <= 0
 cc_alt_vars_22 <= 0
 cc_alt_vars_20 <= 0
 cc_alt_vars_9 <= 0
 cc_alt_vars_8 <= 0
 cc_alt_vars_15 <= 0
 cc_alt_vars_19 <= 0
 cc_alt_vars_2 <= 0
 cc_alt_vars_6 <= 0
 cc_alt_vars_13 <= 0
 cc_alt_vars_14 <= 0
 cc_alt_vars_21 <= 0
 cc_alt_vars_11 <= 0
 cc_alt_vars_4 <= 0
 cc_alt_vars_5 <= 0
 cc_alt_vars_17 <= 0
Scenario 654
Bounds
 cc_alt_vars_22 <= 0
 cc_alt_vars_20 <= 0
 cc_alt_vars_9 <= 0
 cc_alt_vars_8 <= 0
 cc_alt_vars_15 <= 0
 cc_alt_vars_19 <= 0
 cc_alt_vars_2 <= 0
 cc_alt_vars_0 <= 0
 cc_alt_vars_6 <= 0
 cc_alt_vars_13 <= 0
 cc_alt_vars_14 <= 0
 cc_alt_vars_21 <= 0
 cc_alt_vars_11 <= 0
 cc_alt_vars_4 <= 0
 cc_alt_vars_5 <= 0
 cc_alt_vars_17 <= 0
Scenario 655
Bounds
 cc_alt_vars_1 <= 0
 cc_alt_vars_22 <= 0
 cc_alt_vars_20 <= 0
 cc_alt_vars_9 <= 0
 cc_alt_vars_8 <= 0
 cc_alt_vars_15 <= 0
 cc_alt_vars_19 <= 0
 cc_alt_vars_0 <= 0
 cc_alt_vars_6 <= 0
 cc_alt_vars_13 <= 0
 cc_alt_vars_14 <= 0
 cc_alt_vars_21 <= 0
 cc_alt_vars_11 <= 0
 cc_alt_vars_4 <= 0
 cc_alt_vars_5 <= 0
 cc_alt_vars_17 <= 0
Scenario 656
Bounds
 cc_alt_vars_1 <= 0
 cc_alt_vars_22 <= 0
 cc_alt_vars_20 <= 0
 cc_alt_vars_9 <= 0
 cc_alt_vars_8 <= 0
 cc_alt_vars_15 <= 0
 cc_alt_vars_19 <= 0
 cc_alt_vars_2 <= 0
 cc_alt_vars_6 <= 0
 cc_alt_vars_3 <= 0
 cc_alt_vars_13 <= 0
 cc_alt_vars_14 <= 0
 cc_alt_vars_21 <= 0
 cc_alt_vars_11 <= 0
 cc_alt_vars_5 <= 0
 cc_alt_vars_17 <= 0
Scenario 657
Bounds
 cc_alt_vars_22 <= 0
 cc_alt_vars_20 <= 0
 cc_alt_vars_9 <= 0
 cc_alt_vars_8 <= 0
 cc_alt_vars_15 <= 0
 cc_alt_vars_19 <= 0
 cc_alt_vars_2 <= 0
 cc_alt_vars_0 <= 0
 cc_alt_vars_6 <= 0
 cc_alt_vars_3 <= 0
 cc_alt_vars_13 <= 0
 cc_alt_vars_14 <= 0
 cc_alt_vars_21 <= 0
 cc_alt_vars_11 <= 0
 cc_alt_vars_5 <= 0
 cc_alt_vars_17 <= 0
Scenario 658
Bounds
 cc_alt_vars_1 <= 0
 cc_alt_vars_22 <= 0
 cc_alt_vars_20 <= 0
 cc_alt_vars_9 <= 0
 cc_alt_vars_8 <= 0
 cc_alt_vars_15 <= 0
 cc_alt_vars_19 <= 0
 cc_alt_vars_0 <= 0
 cc_alt_vars_6 <= 0
 cc_alt_vars_3 <= 0
 cc_alt_vars_13 <= 0
 cc_alt_vars_14 <= 0
 cc_alt_vars_21 <= 0
 cc_alt_vars_11 <= 0
 cc_alt_vars_5 <= 0
 cc_alt_vars_17 <= 0
Scenario 659
Bounds
 cc_alt_vars_1 <= 0
 cc_alt_vars_22 <= 0
 cc_alt_vars_20 <= 0
 cc_alt_vars_9 <= 0
 cc_alt_vars_8 <= 0
 cc_alt_vars_15 <= 0
 cc_alt_vars_19 <= 0
 cc_alt_vars_2 <= 0
 cc_alt_vars_6 <= 0
 cc_alt_vars_3 <= 0
 cc_alt_vars_13 <= 0
 cc_alt_vars_14 <= 0
 cc_alt_vars_21 <= 0
 cc_alt_vars_11 <= 0
 cc_alt_vars_4 <= 0
 cc_alt_vars_17 <= 0
Scenario 660
Bounds
 cc_alt_vars_22 <= 0
 cc_alt_vars_20 <= 0
 cc_alt_vars_9 <= 0
 cc_alt_vars_8 <= 0
 cc_alt_vars_15 <= 0
 cc_alt_vars_19 <= 0
 cc_alt_vars_2 <= 0
 cc_alt_vars_0 <= 0
 cc_alt_vars_6 <= 0
 cc_alt_vars_3 <= 0
 cc_alt_vars_13 <= 0
 cc_alt_vars_14 <= 0
 cc_alt_vars_21 <= 0
 cc_alt_vars_11 <= 0
 cc_alt_vars_4 <= 0
 cc_alt_vars_17 <= 0
Scenario 661
Bounds
 cc_alt_vars_1 <= 0
 cc_alt_vars_22 <= 0
 cc_alt_vars_20 <= 0
 cc_alt_vars_9 <= 0
 cc_alt_vars_8 <= 0
 cc_alt_vars_15 <= 0
 cc_alt_vars_19 <= 0
 cc_alt_vars_0 <= 0
 cc_alt_vars_6 <= 0
 cc_alt_vars_3 <= 0
 cc_alt_vars_13 <= 0
 cc_alt_vars_14 <= 0
 cc_alt_vars_21 <= 0
 cc_alt_vars_11 <= 0
 cc_alt_vars_4 <= 0
 cc_alt_vars_17 <= 0
Scenario 662
Bounds
 cc_alt_vars_1 <= 0
 cc_alt_vars_22 <= 0
 cc_alt_vars_20 <= 0
 cc_alt_vars_9 <= 0
 cc_alt_vars_7 <= 0
 cc_alt_vars_15 <= 0
 cc_alt_vars_19 <= 0
 cc_alt_vars_2 <= 0
 cc_alt_vars_6 <= 0
 cc_alt_vars_13 <= 0
 cc_alt_vars_14 <= 0
 cc_alt_vars_21 <= 0
 cc_alt_vars_11 <= 0
 cc_alt_vars_4 <= 0
 cc_alt_vars_5 <= 0
 cc_alt_vars_17 <= 0
Scenario 663
Bounds
 cc_alt_vars_22 <= 0
 cc_alt_vars_20 <= 0
 cc_alt_vars_9 <= 0
 cc_alt_vars_7 <= 0
 cc_alt_vars_15 <= 0
 cc_alt_vars_19 <= 0
 cc_alt_vars_2 <= 0
 cc_alt_vars_0 <= 0
 cc_alt_vars_6 <= 0
 cc_alt_vars_13 <= 0
 cc_alt_vars_14 <= 0
 cc_alt_vars_21 <= 0
 cc_alt_vars_11 <= 0
 cc_alt_vars_4 <= 0
 cc_alt_vars_5 <= 0
 cc_alt_vars_17 <= 0
Scenario 664
Bounds
 cc_alt_vars_1 <= 0
 cc_alt_vars_22 <= 0
 cc_alt_vars_20 <= 0
 cc_alt_vars_9 <= 0
 cc_alt_vars_7 <= 0
 cc_alt_vars_15 <= 0
 cc_alt_vars_19 <= 0
 cc_alt_vars_0 <= 0
 cc_alt_vars_6 <= 0
 cc_alt_vars_13 <= 0
 cc_alt_vars_14 <= 0
 cc_alt_vars_21 <= 0
 cc_alt_vars_11 <= 0
 cc_alt_vars_4 <= 0
 cc_alt_vars_5 <= 0
 cc_alt_vars_17 <= 0
Scenario 665
Bounds
 cc_alt_vars_1 <= 0
 cc_alt_vars_22 <= 0
 cc_alt_vars_20 <= 0
 cc_alt_vars_9 <= 0
 cc_alt_vars_7 <= 0
 cc_alt_vars_15 <= 0
 cc_alt_vars_19 <= 0
 cc_alt_vars_2 <= 0
 cc_alt_vars_6 <= 0
 cc_alt_vars_3 <= 0
 cc_alt_vars_13 <= 0
 cc_alt_vars_14 <= 0
 cc_alt_vars_21 <= 0
 cc_alt_vars_11 <= 0
 cc_alt_vars_5 <= 0
 cc_alt_vars_17 <= 0
Scenario 666
Bounds
 cc_alt_vars_22 <= 0
 cc_alt_vars_20 <= 0
 cc_alt_vars_9 <= 0
 cc_alt_vars_7 <= 0
 cc_alt_vars_15 <= 0
 cc_alt_vars_19 <= 0
 cc_alt_vars_2 <= 0
 cc_alt_vars_0 <= 0
 cc_alt_vars_6 <= 0
 cc_alt_vars_3 <= 0
 cc_alt_vars_13 <= 0
 cc_alt_vars_14 <= 0
 cc_alt_vars_21 <= 0
 cc_alt_vars_11 <= 0
 cc_alt_vars_5 <= 0
 cc_alt_vars_17 <= 0
Scenario 667
Bounds
 cc_alt_vars_1 <= 0
 cc_alt_vars_22 <= 0
 cc_alt_vars_20 <= 0
 cc_alt_vars_9 <= 0
 cc_alt_vars_7 <= 0
 cc_alt_vars_15 <= 0
 cc_alt_vars_19 <= 0
 cc_alt_vars_0 <= 0
 cc_alt_vars_6 <= 0
 cc_alt_vars_3 <= 0
 cc_alt_vars_13 <= 0
 cc_alt_vars_14 <= 0
 cc_alt_vars_21 <= 0
 cc_alt_vars_11 <= 0
 cc_alt_vars_5 <= 0
 cc_alt_vars_17 <= 0
Scenario 668
Bounds
 cc_alt_vars_1 <= 0
 cc_alt_vars_22 <= 0
 cc_alt_vars_20 <= 0
 cc_alt_vars_9 <= 0
 cc_alt_vars_7 <= 0
 cc_alt_vars_15 <= 0
 cc_alt_vars_19 <= 0
 cc_alt_vars_2 <= 0
 cc_alt_vars_6 <= 0
 cc_alt_vars_3 <= 0
 cc_alt_vars_13 <= 0
 cc_alt_vars_14 <= 0
 cc_alt_vars_21 <= 0
 cc_alt_vars_11 <= 0
 cc_alt_vars_4 <= 0
 cc_alt_vars_17 <= 0
Scenario 669
Bounds
 cc_alt_vars_22 <= 0
 cc_alt_vars_20 <= 0
 cc_alt_vars_9 <= 0
 cc_alt_vars_7 <= 0
 cc_alt_vars_15 <= 0
 cc_alt_vars_19 <= 0
 cc_alt_vars_2 <= 0
 cc_alt_vars_0 <= 0
 cc_alt_vars_6 <= 0
 cc_alt_vars_3 <= 0
 cc_alt_vars_13 <= 0
 cc_alt_vars_14 <= 0
 cc_alt_vars_21 <= 0
 cc_alt_vars_11 <= 0
 cc_alt_vars_4 <= 0
 cc_alt_vars_17 <= 0
Scenario 670
Bounds
 cc_alt_vars_1 <= 0
 cc_alt_vars_22 <= 0
 cc_alt_vars_20 <= 0
 cc_alt_vars_9 <= 0
 cc_alt_vars_7 <= 0
 cc_alt_vars_15 <= 0
 cc_alt_vars_19 <= 0
 cc_alt_vars_0 <= 0
 cc_alt_vars_6 <= 0
 cc_alt_vars_3 <= 0
 cc_alt_vars_13 <= 0
 cc_alt_vars_14 <= 0
 cc_alt_vars_21 <= 0
 cc_alt_vars_11 <= 0
 cc_alt_vars_4 <= 0
 cc_alt_vars_17 <= 0
Scenario 671
Bounds
 cc_alt_vars_1 <= 0
 cc_alt_vars_22 <= 0
 cc_alt_vars_20 <= 0
 cc_alt_vars_9 <= 0
 cc_alt_vars_8 <= 0
 cc_alt_vars_7 <= 0
 cc_alt_vars_15 <= 0
 cc_alt_vars_19 <= 0
 cc_alt_vars_2 <= 0
 cc_alt_vars_13 <= 0
 cc_alt_vars_14 <= 0
 cc_alt_vars_21 <= 0
 cc_alt_vars_4 <= 0
 cc_alt_vars_5 <= 0
 cc_alt_vars_10 <= 0
 cc_alt_vars_17 <= 0
Scenario 672
Bounds
 cc_alt_vars_22 <= 0
 cc_alt_vars_20 <= 0
 cc_alt_vars_9 <= 0
 cc_alt_vars_8 <= 0
 cc_alt_vars_7 <= 0
 cc_alt_vars_15 <= 0
 cc_alt_vars_19 <= 0
 cc_alt_vars_2 <= 0
 cc_alt_vars_0 <= 0
 cc_alt_vars_13 <= 0
 cc_alt_vars_14 <= 0
 cc_alt_vars_21 <= 0
 cc_alt_vars_4 <= 0
 cc_alt_vars_5 <= 0
 cc_alt_vars_10 <= 0
 cc_alt_vars_17 <= 0
Scenario 673
Bounds
 cc_alt_vars_1 <= 0
 cc_alt_vars_22 <= 0
 cc_alt_vars_20 <= 0
 cc_alt_vars_9 <= 0
 cc_alt_vars_8 <= 0
 cc_alt_vars_7 <= 0
 cc_alt_vars_15 <= 0
 cc_alt_vars_19 <= 0
 cc_alt_vars_0 <= 0
 cc_alt_vars_13 <= 0
 cc_alt_vars_14 <= 0
 cc_alt_vars_21 <= 0
 cc_alt_vars_4 <= 0
 cc_alt_vars_5 <= 0
 cc_alt_vars_10 <= 0
 cc_alt_vars_17 <= 0
Scenario 674
Bounds
 cc_alt_vars_1 <= 0
 cc_alt_vars_22 <= 0
 cc_alt_vars_20 <= 0
 cc_alt_vars_9 <= 0
 cc_alt_vars_8 <= 0
 cc_alt_vars_7 <= 0
 cc_alt_vars_15 <= 0
 cc_alt_vars_19 <= 0
 cc_alt_vars_2 <= 0
 cc_alt_vars_3 <= 0
 cc_alt_vars_13 <= 0
 cc_alt_vars_14 <= 0
 cc_alt_vars_21 <= 0
 cc_alt_vars_5 <= 0
 cc_alt_vars_10 <= 0
 cc_alt_vars_17 <= 0
Scenario 675
Bounds
 cc_alt_vars_22 <= 0
 cc_alt_vars_20 <= 0
 cc_alt_vars_9 <= 0
 cc_alt_vars_8 <= 0
 cc_alt_vars_7 <= 0
 cc_alt_vars_15 <= 0
 cc_alt_vars_19 <= 0
 cc_alt_vars_2 <= 0
 cc_alt_vars_0 <= 0
 cc_alt_vars_3 <= 0
 cc_alt_vars_13 <= 0
 cc_alt_vars_14 <= 0
 cc_alt_vars_21 <= 0
 cc_alt_vars_5 <= 0
 cc_alt_vars_10 <= 0
 cc_alt_vars_17 <= 0
Scenario 676
Bounds
 cc_alt_vars_1 <= 0
 cc_alt_vars_22 <= 0
 cc_alt_vars_20 <= 0
 cc_alt_vars_9 <= 0
 cc_alt_vars_8 <= 0
 cc_alt_vars_7 <= 0
 cc_alt_vars_15 <= 0
 cc_alt_vars_19 <= 0
 cc_alt_vars_0 <= 0
 cc_alt_vars_3 <= 0
 cc_alt_vars_13 <= 0
 cc_alt_vars_14 <= 0
 cc_alt_vars_21 <= 0
 cc_alt_vars_5 <= 0
 cc_alt_vars_10 <= 0
 cc_alt_vars_17 <= 0
Scenario 677
Bounds
 cc_alt_vars_1 <= 0
 cc_alt_vars_22 <= 0
 cc_alt_vars_20 <= 0
 cc_alt_vars_9 <= 0
 cc_alt_vars_8 <= 0
 cc_alt_vars_7 <= 0
 cc_alt_vars_15 <= 0
 cc_alt_vars_19 <= 0
 cc_alt_vars_2 <= 0
 cc_alt_vars_3 <= 0
 cc_alt_vars_13 <= 0
 cc_alt_vars_14 <= 0
 cc_alt_vars_21 <= 0
 cc_alt_vars_4 <= 0
 cc_alt_vars_10 <= 0
 cc_alt_vars_17 <= 0
Scenario 678
Bounds
 cc_alt_vars_22 <= 0
 cc_alt_vars_20 <= 0
 cc_alt_vars_9 <= 0
 cc_alt_vars_8 <= 0
 cc_alt_vars_7 <= 0
 cc_alt_vars_15 <= 0
 cc_alt_vars_19 <= 0
 cc_alt_vars_2 <= 0
 cc_alt_vars_0 <= 0
 cc_alt_vars_3 <= 0
 cc_alt_vars_13 <= 0
 cc_alt_vars_14 <= 0
 cc_alt_vars_21 <= 0
 cc_alt_vars_4 <= 0
 cc_alt_vars_10 <= 0
 cc_alt_vars_17 <= 0
Scenario 679
Bounds
 cc_alt_vars_1 <= 0
 cc_alt_vars_22 <= 0
 cc_alt_vars_20 <= 0
 cc_alt_vars_9 <= 0
 cc_alt_vars_8 <= 0
 cc_alt_vars_7 <= 0
 cc_alt_vars_15 <= 0
 cc_alt_vars_19 <= 0
 cc_alt_vars_0 <= 0
 cc_alt_vars_3 <= 0
 cc_alt_vars_13 <= 0
 cc_alt_vars_14 <= 0
 cc_alt_vars_21 <= 0
 cc_alt_vars_4 <= 0
 cc_alt_vars_10 <= 0
 cc_alt_vars_17 <= 0
Scenario 680
Bounds
 cc_alt_vars_1 <= 0
 cc_alt_vars_22 <= 0
 cc_alt_vars_20 <= 0
 cc_alt_vars_9 <= 0
 cc_alt_vars_8 <= 0
 cc_alt_vars_15 <= 0
 cc_alt_vars_19 <= 0
 cc_alt_vars_2 <= 0
 cc_alt_vars_6 <= 0
 cc_alt_vars_13 <= 0
 cc_alt_vars_14 <= 0
 cc_alt_vars_21 <= 0
 cc_alt_vars_4 <= 0
 cc_alt_vars_5 <= 0
 cc_alt_vars_10 <= 0
 cc_alt_vars_17 <= 0
Scenario 681
Bounds
 cc_alt_vars_22 <= 0
 cc_alt_vars_20 <= 0
 cc_alt_vars_9 <= 0
 cc_alt_vars_8 <= 0
 cc_alt_vars_15 <= 0
 cc_alt_vars_19 <= 0
 cc_alt_vars_2 <= 0
 cc_alt_vars_0 <= 0
 cc_alt_vars_6 <= 0
 cc_alt_vars_13 <= 0
 cc_alt_vars_14 <= 0
 cc_alt_vars_21 <= 0
 cc_alt_vars_4 <= 0
 cc_alt_vars_5 <= 0
 cc_alt_vars_10 <= 0
 cc_alt_vars_17 <= 0
Scenario 682
Bounds
 cc_alt_vars_1 <= 0
 cc_alt_vars_22 <= 0
 cc_alt_vars_20 <= 0
 cc_alt_vars_9 <= 0
 cc_alt_vars_8 <= 0
 cc_alt_vars_15 <= 0
 cc_alt_vars_19 <= 0
 cc_alt_vars_0 <= 0
 cc_alt_vars_6 <= 0
 cc_alt_vars_13 <= 0
 cc_alt_vars_14 <= 0
 cc_alt_vars_21 <= 0
 cc_alt_vars_4 <= 0
 cc_alt_vars_5 <= 0
 cc_alt_vars_10 <= 0
 cc_alt_vars_17 <= 0
Scenario 683
Bounds
 cc_alt_vars_1 <= 0
 cc_alt_vars_22 <= 0
 cc_alt_vars_20 <= 0
 cc_alt_vars_9 <= 0
 cc_alt_vars_8 <= 0
 cc_alt_vars_15 <= 0
 cc_alt_vars_19 <= 0
 cc_alt_vars_2 <= 0
 cc_alt_vars_6 <= 0
 cc_alt_vars_3 <= 0
 cc_alt_vars_13 <= 0
 cc_alt_vars_14 <= 0
 cc_alt_vars_21 <= 0
 cc_alt_vars_5 <= 0
 cc_alt_vars_10 <= 0
 cc_alt_vars_17 <= 0
Scenario 684
Bounds
 cc_alt_vars_22 <= 0
 cc_alt_vars_20 <= 0
 cc_alt_vars_9 <= 0
 cc_alt_vars_8 <= 0
 cc_alt_vars_15 <= 0
 cc_alt_vars_19 <= 0
 cc_alt_vars_2 <= 0
 cc_alt_vars_0 <= 0
 cc_alt_vars_6 <= 0
 cc_alt_vars_3 <= 0
 cc_alt_vars_13 <= 0
 cc_alt_vars_14 <= 0
 cc_alt_vars_21 <= 0
 cc_alt_vars_5 <= 0
 cc_alt_vars_10 <= 0
 cc_alt_vars_17 <= 0
Scenario 685
Bounds
 cc_alt_vars_1 <= 0
 cc_alt_vars_22 <= 0
 cc_alt_vars_20 <= 0
 cc_alt_vars_9 <= 0
 cc_alt_vars_8 <= 0
 cc_alt_vars_15 <= 0
 cc_alt_vars_19 <= 0
 cc_alt_vars_0 <= 0
 cc_alt_vars_6 <= 0
 cc_alt_vars_3 <= 0
 cc_alt_vars_13 <= 0
 cc_alt_vars_14 <= 0
 cc_alt_vars_21 <= 0
 cc_alt_vars_5 <= 0
 cc_alt_vars_10 <= 0
 cc_alt_vars_17 <= 0
Scenario 686
Bounds
 cc_alt_vars_1 <= 0
 cc_alt_vars_22 <= 0
 cc_alt_vars_20 <= 0
 cc_alt_vars_9 <= 0
 cc_alt_vars_8 <= 0
 cc_alt_vars_15 <= 0
 cc_alt_vars_19 <= 0
 cc_alt_vars_2 <= 0
 cc_alt_vars_6 <= 0
 cc_alt_vars_3 <= 0
 cc_alt_vars_13 <= 0
 cc_alt_vars_14 <= 0
 cc_alt_vars_21 <= 0
 cc_alt_vars_4 <= 0
 cc_alt_vars_10 <= 0
 cc_alt_vars_17 <= 0
Scenario 687
Bounds
 cc_alt_vars_22 <= 0
 cc_alt_vars_20 <= 0
 cc_alt_vars_9 <= 0
 cc_alt_vars_8 <= 0
 cc_alt_vars_15 <= 0
 cc_alt_vars_19 <= 0
 cc_alt_vars_2 <= 0
 cc_alt_vars_0 <= 0
 cc_alt_vars_6 <= 0
 cc_alt_vars_3 <= 0
 cc_alt_vars_13 <= 0
 cc_alt_vars_14 <= 0
 cc_alt_vars_21 <= 0
 cc_alt_vars_4 <= 0
 cc_alt_vars_10 <= 0
 cc_alt_vars_17 <= 0
Scenario 688
Bounds
 cc_alt_vars_1 <= 0
 cc_alt_vars_22 <= 0
 cc_alt_vars_20 <= 0
 cc_alt_vars_9 <= 0
 cc_alt_vars_8 <= 0
 cc_alt_vars_15 <= 0
 cc_alt_vars_19 <= 0
 cc_alt_vars_0 <= 0
 cc_alt_vars_6 <= 0
 cc_alt_vars_3 <= 0
 cc_alt_vars_13 <= 0
 cc_alt_vars_14 <= 0
 cc_alt_vars_21 <= 0
 cc_alt_vars_4 <= 0
 cc_alt_vars_10 <= 0
 cc_alt_vars_17 <= 0
Scenario 689
Bounds
 cc_alt_vars_1 <= 0
 cc_alt_vars_22 <= 0
 cc_alt_vars_20 <= 0
 cc_alt_vars_9 <= 0
 cc_alt_vars_7 <= 0
 cc_alt_vars_15 <= 0
 cc_alt_vars_19 <= 0
 cc_alt_vars_2 <= 0
 cc_alt_vars_6 <= 0
 cc_alt_vars_13 <= 0
 cc_alt_vars_14 <= 0
 cc_alt_vars_21 <= 0
 cc_alt_vars_4 <= 0
 cc_alt_vars_5 <= 0
 cc_alt_vars_10 <= 0
 cc_alt_vars_17 <= 0
Scenario 690
Bounds
 cc_alt_vars_22 <= 0
 cc_alt_vars_20 <= 0
 cc_alt_vars_9 <= 0
 cc_alt_vars_7 <= 0
 cc_alt_vars_15 <= 0
 cc_alt_vars_19 <= 0
 cc_alt_vars_2 <= 0
 cc_alt_vars_0 <= 0
 cc_alt_vars_6 <= 0
 cc_alt_vars_13 <= 0
 cc_alt_vars_14 <= 0
 cc_alt_vars_21 <= 0
 cc_alt_vars_4 <= 0
 cc_alt_vars_5 <= 0
 cc_alt_vars_10 <= 0
 cc_alt_vars_17 <= 0
Scenario 691
Bounds
 cc_alt_vars_1 <= 0
 cc_alt_vars_22 <= 0
 cc_alt_vars_20 <= 0
 cc_alt_vars_9 <= 0
 cc_alt_vars_7 <= 0
 cc_alt_vars_15 <= 0
 cc_alt_vars_19 <= 0
 cc_alt_vars_0 <= 0
 cc_alt_vars_6 <= 0
 cc_alt_vars_13 <= 0
 cc_alt_vars_14 <= 0
 cc_alt_vars_21 <= 0
 cc_alt_vars_4 <= 0
 cc_alt_vars_5 <= 0
 cc_alt_vars_10 <= 0
 cc_alt_vars_17 <= 0
Scenario 692
Bounds
 cc_alt_vars_1 <= 0
 cc_alt_vars_22 <= 0
 cc_alt_vars_20 <= 0
 cc_alt_vars_9 <= 0
 cc_alt_vars_7 <= 0
 cc_alt_vars_15 <= 0
 cc_alt_vars_19 <= 0
 cc_alt_vars_2 <= 0
 cc_alt_vars_6 <= 0
 cc_alt_vars_3 <= 0
 cc_alt_vars_13 <= 0
 cc_alt_vars_14 <= 0
 cc_alt_vars_21 <= 0
 cc_alt_vars_5 <= 0
 cc_alt_vars_10 <= 0
 cc_alt_vars_17 <= 0
Scenario 693
Bounds
 cc_alt_vars_22 <= 0
 cc_alt_vars_20 <= 0
 cc_alt_vars_9 <= 0
 cc_alt_vars_7 <= 0
 cc_alt_vars_15 <= 0
 cc_alt_vars_19 <= 0
 cc_alt_vars_2 <= 0
 cc_alt_vars_0 <= 0
 cc_alt_vars_6 <= 0
 cc_alt_vars_3 <= 0
 cc_alt_vars_13 <= 0
 cc_alt_vars_14 <= 0
 cc_alt_vars_21 <= 0
 cc_alt_vars_5 <= 0
 cc_alt_vars_10 <= 0
 cc_alt_vars_17 <= 0
Scenario 694
Bounds
 cc_alt_vars_1 <= 0
 cc_alt_vars_22 <= 0
 cc_alt_vars_20 <= 0
 cc_alt_vars_9 <= 0
 cc_alt_vars_7 <= 0
 cc_alt_vars_15 <= 0
 cc_alt_vars_19 <= 0
 cc_alt_vars_0 <= 0
 cc_alt_vars_6 <= 0
 cc_alt_vars_3 <= 0
 cc_alt_vars_13 <= 0
 cc_alt_vars_14 <= 0
 cc_alt_vars_21 <= 0
 cc_alt_vars_5 <= 0
 cc_alt_vars_10 <= 0
 cc_alt_vars_17 <= 0
Scenario 695
Bounds
 cc_alt_vars_1 <= 0
 cc_alt_vars_22 <= 0
 cc_alt_vars_20 <= 0
 cc_alt_vars_9 <= 0
 cc_alt_vars_7 <= 0
 cc_alt_vars_15 <= 0
 cc_alt_vars_19 <= 0
 cc_alt_vars_2 <= 0
 cc_alt_vars_6 <= 0
 cc_alt_vars_3 <= 0
 cc_alt_vars_13 <= 0
 cc_alt_vars_14 <= 0
 cc_alt_vars_21 <= 0
 cc_alt_vars_4 <= 0
 cc_alt_vars_10 <= 0
 cc_alt_vars_17 <= 0
Scenario 696
Bounds
 cc_alt_vars_22 <= 0
 cc_alt_vars_20 <= 0
 cc_alt_vars_9 <= 0
 cc_alt_vars_7 <= 0
 cc_alt_vars_15 <= 0
 cc_alt_vars_19 <= 0
 cc_alt_vars_2 <= 0
 cc_alt_vars_0 <= 0
 cc_alt_vars_6 <= 0
 cc_alt_vars_3 <= 0
 cc_alt_vars_13 <= 0
 cc_alt_vars_14 <= 0
 cc_alt_vars_21 <= 0
 cc_alt_vars_4 <= 0
 cc_alt_vars_10 <= 0
 cc_alt_vars_17 <= 0
Scenario 697
Bounds
 cc_alt_vars_1 <= 0
 cc_alt_vars_22 <= 0
 cc_alt_vars_20 <= 0
 cc_alt_vars_9 <= 0
 cc_alt_vars_7 <= 0
 cc_alt_vars_15 <= 0
 cc_alt_vars_19 <= 0
 cc_alt_vars_0 <= 0
 cc_alt_vars_6 <= 0
 cc_alt_vars_3 <= 0
 cc_alt_vars_13 <= 0
 cc_alt_vars_14 <= 0
 cc_alt_vars_21 <= 0
 cc_alt_vars_4 <= 0
 cc_alt_vars_10 <= 0
 cc_alt_vars_17 <= 0
Scenario 698
Bounds
 cc_alt_vars_1 <= 0
 cc_alt_vars_22 <= 0
 cc_alt_vars_20 <= 0
 cc_alt_vars_8 <= 0
 cc_alt_vars_7 <= 0
 cc_alt_vars_15 <= 0
 cc_alt_vars_19 <= 0
 cc_alt_vars_2 <= 0
 cc_alt_vars_14 <= 0
 cc_alt_vars_21 <= 0
 cc_alt_vars_11 <= 0
 cc_alt_vars_4 <= 0
 cc_alt_vars_12 <= 0
 cc_alt_vars_5 <= 0
 cc_alt_vars_10 <= 0
 cc_alt_vars_17 <= 0
Scenario 699
Bounds
 cc_alt_vars_22 <= 0
 cc_alt_vars_20 <= 0
 cc_alt_vars_8 <= 0
 cc_alt_vars_7 <= 0
 cc_alt_vars_15 <= 0
 cc_alt_vars_19 <= 0
 cc_alt_vars_2 <= 0
 cc_alt_vars_0 <= 0
 cc_alt_vars_14 <= 0
 cc_alt_vars_21 <= 0
 cc_alt_vars_11 <= 0
 cc_alt_vars_4 <= 0
 cc_alt_vars_12 <= 0
 cc_alt_vars_5 <= 0
 cc_alt_vars_10 <= 0
 cc_alt_vars_17 <= 0
Scenario 700
Bounds
 cc_alt_vars_1 <= 0
 cc_alt_vars_22 <= 0
 cc_alt_vars_20 <= 0
 cc_alt_vars_8 <= 0
 cc_alt_vars_7 <= 0
 cc_alt_vars_15 <= 0
 cc_alt_vars_19 <= 0
 cc_alt_vars_0 <= 0
 cc_alt_vars_14 <= 0
 cc_alt_vars_21 <= 0
 cc_alt_vars_11 <= 0
 cc_alt_vars_4 <= 0
 cc_alt_vars_12 <= 0
 cc_alt_vars_5 <= 0
 cc_alt_vars_10 <= 0
 cc_alt_vars_17 <= 0
Scenario 701
Bounds
 cc_alt_vars_1 <= 0
 cc_alt_vars_22 <= 0
 cc_alt_vars_20 <= 0
 cc_alt_vars_8 <= 0
 cc_alt_vars_7 <= 0
 cc_alt_vars_15 <= 0
 cc_alt_vars_19 <= 0
 cc_alt_vars_2 <= 0
 cc_alt_vars_3 <= 0
 cc_alt_vars_14 <= 0
 cc_alt_vars_21 <= 0
 cc_alt_vars_11 <= 0
 cc_alt_vars_12 <= 0
 cc_alt_vars_5 <= 0
 cc_alt_vars_10 <= 0
 cc_alt_vars_17 <= 0
Scenario 702
Bounds
 cc_alt_vars_22 <= 0
 cc_alt_vars_20 <= 0
 cc_alt_vars_8 <= 0
 cc_alt_vars_7 <= 0
 cc_alt_vars_15 <= 0
 cc_alt_vars_19 <= 0
 cc_alt_vars_2 <= 0
 cc_alt_vars_0 <= 0
 cc_alt_vars_3 <= 0
 cc_alt_vars_14 <= 0
 cc_alt_vars_21 <= 0
 cc_alt_vars_11 <= 0
 cc_alt_vars_12 <= 0
 cc_alt_vars_5 <= 0
 cc_alt_vars_10 <= 0
 cc_alt_vars_17 <= 0
Scenario 703
Bounds
 cc_alt_vars_1 <= 0
 cc_alt_vars_22 <= 0
 cc_alt_vars_20 <= 0
 cc_alt_vars_8 <= 0
 cc_alt_vars_7 <= 0
 cc_alt_vars_15 <= 0
 cc_alt_vars_19 <= 0
 cc_alt_vars_0 <= 0
 cc_alt_vars_3 <= 0
 cc_alt_vars_14 <= 0
 cc_alt_vars_21 <= 0
 cc_alt_vars_11 <= 0
 cc_alt_vars_12 <= 0
 cc_alt_vars_5 <= 0
 cc_alt_vars_10 <= 0
 cc_alt_vars_17 <= 0
Scenario 704
Bounds
 cc_alt_vars_1 <= 0
 cc_alt_vars_22 <= 0
 cc_alt_vars_20 <= 0
 cc_alt_vars_8 <= 0
 cc_alt_vars_7 <= 0
 cc_alt_vars_15 <= 0
 cc_alt_vars_19 <= 0
 cc_alt_vars_2 <= 0
 cc_alt_vars_3 <= 0
 cc_alt_vars_14 <= 0
 cc_alt_vars_21 <= 0
 cc_alt_vars_11 <= 0
 cc_alt_vars_4 <= 0
 cc_alt_vars_12 <= 0
 cc_alt_vars_10 <= 0
 cc_alt_vars_17 <= 0
Scenario 705
Bounds
 cc_alt_vars_22 <= 0
 cc_alt_vars_20 <= 0
 cc_alt_vars_8 <= 0
 cc_alt_vars_7 <= 0
 cc_alt_vars_15 <= 0
 cc_alt_vars_19 <= 0
 cc_alt_vars_2 <= 0
 cc_alt_vars_0 <= 0
 cc_alt_vars_3 <= 0
 cc_alt_vars_14 <= 0
 cc_alt_vars_21 <= 0
 cc_alt_vars_11 <= 0
 cc_alt_vars_4 <= 0
 cc_alt_vars_12 <= 0
 cc_alt_vars_10 <= 0
 cc_alt_vars_17 <= 0
Scenario 706
Bounds
 cc_alt_vars_1 <= 0
 cc_alt_vars_22 <= 0
 cc_alt_vars_20 <= 0
 cc_alt_vars_8 <= 0
 cc_alt_vars_7 <= 0
 cc_alt_vars_15 <= 0
 cc_alt_vars_19 <= 0
 cc_alt_vars_0 <= 0
 cc_alt_vars_3 <= 0
 cc_alt_vars_14 <= 0
 cc_alt_vars_21 <= 0
 cc_alt_vars_11 <= 0
 cc_alt_vars_4 <= 0
 cc_alt_vars_12 <= 0
 cc_alt_vars_10 <= 0
 cc_alt_vars_17 <= 0
Scenario 707
Bounds
 cc_alt_vars_1 <= 0
 cc_alt_vars_22 <= 0
 cc_alt_vars_20 <= 0
 cc_alt_vars_8 <= 0
 cc_alt_vars_15 <= 0
 cc_alt_vars_19 <= 0
 cc_alt_vars_2 <= 0
 cc_alt_vars_6 <= 0
 cc_alt_vars_14 <= 0
 cc_alt_vars_21 <= 0
 cc_alt_vars_11 <= 0
 cc_alt_vars_4 <= 0
 cc_alt_vars_12 <= 0
 cc_alt_vars_5 <= 0
 cc_alt_vars_10 <= 0
 cc_alt_vars_17 <= 0
Scenario 708
Bounds
 cc_alt_vars_22 <= 0
 cc_alt_vars_20 <= 0
 cc_alt_vars_8 <= 0
 cc_alt_vars_15 <= 0
 cc_alt_vars_19 <= 0
 cc_alt_vars_2 <= 0
 cc_alt_vars_0 <= 0
 cc_alt_vars_6 <= 0
 cc_alt_vars_14 <= 0
 cc_alt_vars_21 <= 0
 cc_alt_vars_11 <= 0
 cc_alt_vars_4 <= 0
 cc_alt_vars_12 <= 0
 cc_alt_vars_5 <= 0
 cc_alt_vars_10 <= 0
 cc_alt_vars_17 <= 0
Scenario 709
Bounds
 cc_alt_vars_1 <= 0
 cc_alt_vars_22 <= 0
 cc_alt_vars_20 <= 0
 cc_alt_vars_8 <= 0
 cc_alt_vars_15 <= 0
 cc_alt_vars_19 <= 0
 cc_alt_vars_0 <= 0
 cc_alt_vars_6 <= 0
 cc_alt_vars_14 <= 0
 cc_alt_vars_21 <= 0
 cc_alt_vars_11 <= 0
 cc_alt_vars_4 <= 0
 cc_alt_vars_12 <= 0
 cc_alt_vars_5 <= 0
 cc_alt_vars_10 <= 0
 cc_alt_vars_17 <= 0
Scenario 710
Bounds
 cc_alt_vars_1 <= 0
 cc_alt_vars_22 <= 0
 cc_alt_vars_20 <= 0
 cc_alt_vars_8 <= 0
 cc_alt_vars_15 <= 0
 cc_alt_vars_19 <= 0
 cc_alt_vars_2 <= 0
 cc_alt_vars_6 <= 0
 cc_alt_vars_3 <= 0
 cc_alt_vars_14 <= 0
 cc_alt_vars_21 <= 0
 cc_alt_vars_11 <= 0
 cc_alt_vars_12 <= 0
 cc_alt_vars_5 <= 0
 cc_alt_vars_10 <= 0
 cc_alt_vars_17 <= 0
Scenario 711
Bounds
 cc_alt_vars_22 <= 0
 cc_alt_vars_20 <= 0
 cc_alt_vars_8 <= 0
 cc_alt_vars_15 <= 0
 cc_alt_vars_19 <= 0
 cc_alt_vars_2 <= 0
 cc_alt_vars_0 <= 0
 cc_alt_vars_6 <= 0
 cc_alt_vars_3 <= 0
 cc_alt_vars_14 <= 0
 cc_alt_vars_21 <= 0
 cc_alt_vars_11 <= 0
 cc_alt_vars_12 <= 0
 cc_alt_vars_5 <= 0
 cc_alt_vars_10 <= 0
 cc_alt_vars_17 <= 0
Scenario 712
Bounds
 cc_alt_vars_1 <= 0
 cc_alt_vars_22 <= 0
 cc_alt_vars_20 <= 0
 cc_alt_vars_8 <= 0
 cc_alt_vars_15 <= 0
 cc_alt_vars_19 <= 0
 cc_alt_vars_0 <= 0
 cc_alt_vars_6 <= 0
 cc_alt_vars_3 <= 0
 cc_alt_vars_14 <= 0
 cc_alt_vars_21 <= 0
 cc_alt_vars_11 <= 0
 cc_alt_vars_12 <= 0
 cc_alt_vars_5 <= 0
 cc_alt_vars_10 <= 0
 cc_alt_vars_17 <= 0
Scenario 713
Bounds
 cc_alt_vars_1 <= 0
 cc_alt_vars_22 <= 0
 cc_alt_vars_20 <= 0
 cc_alt_vars_8 <= 0
 cc_alt_vars_15 <= 0
 cc_alt_vars_19 <= 0
 cc_alt_vars_2 <= 0
 cc_alt_vars_6 <= 0
 cc_alt_vars_3 <= 0
 cc_alt_vars_14 <= 0
 cc_alt_vars_21 <= 0
 cc_alt_vars_11 <= 0
 cc_alt_vars_4 <= 0
 cc_alt_vars_12 <= 0
 cc_alt_vars_10 <= 0
 cc_alt_vars_17 <= 0
Scenario 714
Bounds
 cc_alt_vars_22 <= 0
 cc_alt_vars_20 <= 0
 cc_alt_vars_8 <= 0
 cc_alt_vars_15 <= 0
 cc_alt_vars_19 <= 0
 cc_alt_vars_2 <= 0
 cc_alt_vars_0 <= 0
 cc_alt_vars_6 <= 0
 cc_alt_vars_3 <= 0
 cc_alt_vars_14 <= 0
 cc_alt_vars_21 <= 0
 cc_alt_vars_11 <= 0
 cc_alt_vars_4 <= 0
 cc_alt_vars_12 <= 0
 cc_alt_vars_10 <= 0
 cc_alt_vars_17 <= 0
Scenario 715
Bounds
 cc_alt_vars_1 <= 0
 cc_alt_vars_22 <= 0
 cc_alt_vars_20 <= 0
 cc_alt_vars_8 <= 0
 cc_alt_vars_15 <= 0
 cc_alt_vars_19 <= 0
 cc_alt_vars_0 <= 0
 cc_alt_vars_6 <= 0
 cc_alt_vars_3 <= 0
 cc_alt_vars_14 <= 0
 cc_alt_vars_21 <= 0
 cc_alt_vars_11 <= 0
 cc_alt_vars_4 <= 0
 cc_alt_vars_12 <= 0
 cc_alt_vars_10 <= 0
 cc_alt_vars_17 <= 0
Scenario 716
Bounds
 cc_alt_vars_1 <= 0
 cc_alt_vars_22 <= 0
 cc_alt_vars_20 <= 0
 cc_alt_vars_7 <= 0
 cc_alt_vars_15 <= 0
 cc_alt_vars_19 <= 0
 cc_alt_vars_2 <= 0
 cc_alt_vars_6 <= 0
 cc_alt_vars_14 <= 0
 cc_alt_vars_21 <= 0
 cc_alt_vars_11 <= 0
 cc_alt_vars_4 <= 0
 cc_alt_vars_12 <= 0
 cc_alt_vars_5 <= 0
 cc_alt_vars_10 <= 0
 cc_alt_vars_17 <= 0
Scenario 717
Bounds
 cc_alt_vars_22 <= 0
 cc_alt_vars_20 <= 0
 cc_alt_vars_7 <= 0
 cc_alt_vars_15 <= 0
 cc_alt_vars_19 <= 0
 cc_alt_vars_2 <= 0
 cc_alt_vars_0 <= 0
 cc_alt_vars_6 <= 0
 cc_alt_vars_14 <= 0
 cc_alt_vars_21 <= 0
 cc_alt_vars_11 <= 0
 cc_alt_vars_4 <= 0
 cc_alt_vars_12 <= 0
 cc_alt_vars_5 <= 0
 cc_alt_vars_10 <= 0
 cc_alt_vars_17 <= 0
Scenario 718
Bounds
 cc_alt_vars_1 <= 0
 cc_alt_vars_22 <= 0
 cc_alt_vars_20 <= 0
 cc_alt_vars_7 <= 0
 cc_alt_vars_15 <= 0
 cc_alt_vars_19 <= 0
 cc_alt_vars_0 <= 0
 cc_alt_vars_6 <= 0
 cc_alt_vars_14 <= 0
 cc_alt_vars_21 <= 0
 cc_alt_vars_11 <= 0
 cc_alt_vars_4 <= 0
 cc_alt_vars_12 <= 0
 cc_alt_vars_5 <= 0
 cc_alt_vars_10 <= 0
 cc_alt_vars_17 <= 0
Scenario 719
Bounds
 cc_alt_vars_1 <= 0
 cc_alt_vars_22 <= 0
 cc_alt_vars_20 <= 0
 cc_alt_vars_7 <= 0
 cc_alt_vars_15 <= 0
 cc_alt_vars_19 <= 0
 cc_alt_vars_2 <= 0
 cc_alt_vars_6 <= 0
 cc_alt_vars_3 <= 0
 cc_alt_vars_14 <= 0
 cc_alt_vars_21 <= 0
 cc_alt_vars_11 <= 0
 cc_alt_vars_12 <= 0
 cc_alt_vars_5 <= 0
 cc_alt_vars_10 <= 0
 cc_alt_vars_17 <= 0
Scenario 720
Bounds
 cc_alt_vars_22 <= 0
 cc_alt_vars_20 <= 0
 cc_alt_vars_7 <= 0
 cc_alt_vars_15 <= 0
 cc_alt_vars_19 <= 0
 cc_alt_vars_2 <= 0
 cc_alt_vars_0 <= 0
 cc_alt_vars_6 <= 0
 cc_alt_vars_3 <= 0
 cc_alt_vars_14 <= 0
 cc_alt_vars_21 <= 0
 cc_alt_vars_11 <= 0
 cc_alt_vars_12 <= 0
 cc_alt_vars_5 <= 0
 cc_alt_vars_10 <= 0
 cc_alt_vars_17 <= 0
Scenario 721
Bounds
 cc_alt_vars_1 <= 0
 cc_alt_vars_22 <= 0
 cc_alt_vars_20 <= 0
 cc_alt_vars_7 <= 0
 cc_alt_vars_15 <= 0
 cc_alt_vars_19 <= 0
 cc_alt_vars_0 <= 0
 cc_alt_vars_6 <= 0
 cc_alt_vars_3 <= 0
 cc_alt_vars_14 <= 0
 cc_alt_vars_21 <= 0
 cc_alt_vars_11 <= 0
 cc_alt_vars_12 <= 0
 cc_alt_vars_5 <= 0
 cc_alt_vars_10 <= 0
 cc_alt_vars_17 <= 0
Scenario 722
Bounds
 cc_alt_vars_1 <= 0
 cc_alt_vars_22 <= 0
 cc_alt_vars_20 <= 0
 cc_alt_vars_7 <= 0
 cc_alt_vars_15 <= 0
 cc_alt_vars_19 <= 0
 cc_alt_vars_2 <= 0
 cc_alt_vars_6 <= 0
 cc_alt_vars_3 <= 0
 cc_alt_vars_14 <= 0
 cc_alt_vars_21 <= 0
 cc_alt_vars_11 <= 0
 cc_alt_vars_4 <= 0
 cc_alt_vars_12 <= 0
 cc_alt_vars_10 <= 0
 cc_alt_vars_17 <= 0
Scenario 723
Bounds
 cc_alt_vars_22 <= 0
 cc_alt_vars_20 <= 0
 cc_alt_vars_7 <= 0
 cc_alt_vars_15 <= 0
 cc_alt_vars_19 <= 0
 cc_alt_vars_2 <= 0
 cc_alt_vars_0 <= 0
 cc_alt_vars_6 <= 0
 cc_alt_vars_3 <= 0
 cc_alt_vars_14 <= 0
 cc_alt_vars_21 <= 0
 cc_alt_vars_11 <= 0
 cc_alt_vars_4 <= 0
 cc_alt_vars_12 <= 0
 cc_alt_vars_10 <= 0
 cc_alt_vars_17 <= 0
Scenario 724
Bounds
 cc_alt_vars_1 <= 0
 cc_alt_vars_22 <= 0
 cc_alt_vars_20 <= 0
 cc_alt_vars_7 <= 0
 cc_alt_vars_15 <= 0
 cc_alt_vars_19 <= 0
 cc_alt_vars_0 <= 0
 cc_alt_vars_6 <= 0
 cc_alt_vars_3 <= 0
 cc_alt_vars_14 <= 0
 cc_alt_vars_21 <= 0
 cc_alt_vars_11 <= 0
 cc_alt_vars_4 <= 0
 cc_alt_vars_12 <= 0
 cc_alt_vars_10 <= 0
 cc_alt_vars_17 <= 0
Scenario 725
Bounds
 cc_alt_vars_1 <= 0
 cc_alt_vars_22 <= 0
 cc_alt_vars_20 <= 0
 cc_alt_vars_9 <= 0
 cc_alt_vars_8 <= 0
 cc_alt_vars_7 <= 0
 cc_alt_vars_15 <= 0
 cc_alt_vars_19 <= 0
 cc_alt_vars_2 <= 0
 cc_alt_vars_14 <= 0
 cc_alt_vars_21 <= 0
 cc_alt_vars_11 <= 0
 cc_alt_vars_4 <= 0
 cc_alt_vars_12 <= 0
 cc_alt_vars_5 <= 0
 cc_alt_vars_17 <= 0
Scenario 726
Bounds
 cc_alt_vars_22 <= 0
 cc_alt_vars_20 <= 0
 cc_alt_vars_9 <= 0
 cc_alt_vars_8 <= 0
 cc_alt_vars_7 <= 0
 cc_alt_vars_15 <= 0
 cc_alt_vars_19 <= 0
 cc_alt_vars_2 <= 0
 cc_alt_vars_0 <= 0
 cc_alt_vars_14 <= 0
 cc_alt_vars_21 <= 0
 cc_alt_vars_11 <= 0
 cc_alt_vars_4 <= 0
 cc_alt_vars_12 <= 0
 cc_alt_vars_5 <= 0
 cc_alt_vars_17 <= 0
Scenario 727
Bounds
 cc_alt_vars_1 <= 0
 cc_alt_vars_22 <= 0
 cc_alt_vars_20 <= 0
 cc_alt_vars_9 <= 0
 cc_alt_vars_8 <= 0
 cc_alt_vars_7 <= 0
 cc_alt_vars_15 <= 0
 cc_alt_vars_19 <= 0
 cc_alt_vars_0 <= 0
 cc_alt_vars_14 <= 0
 cc_alt_vars_21 <= 0
 cc_alt_vars_11 <= 0
 cc_alt_vars_4 <= 0
 cc_alt_vars_12 <= 0
 cc_alt_vars_5 <= 0
 cc_alt_vars_17 <= 0
Scenario 728
Bounds
 cc_alt_vars_1 <= 0
 cc_alt_vars_22 <= 0
 cc_alt_vars_20 <= 0
 cc_alt_vars_9 <= 0
 cc_alt_vars_8 <= 0
 cc_alt_vars_7 <= 0
 cc_alt_vars_15 <= 0
 cc_alt_vars_19 <= 0
 cc_alt_vars_2 <= 0
 cc_alt_vars_3 <= 0
 cc_alt_vars_14 <= 0
 cc_alt_vars_21 <= 0
 cc_alt_vars_11 <= 0
 cc_alt_vars_12 <= 0
 cc_alt_vars_5 <= 0
 cc_alt_vars_17 <= 0
Scenario 729
Bounds
 cc_alt_vars_22 <= 0
 cc_alt_vars_20 <= 0
 cc_alt_vars_9 <= 0
 cc_alt_vars_8 <= 0
 cc_alt_vars_7 <= 0
 cc_alt_vars_15 <= 0
 cc_alt_vars_19 <= 0
 cc_alt_vars_2 <= 0
 cc_alt_vars_0 <= 0
 cc_alt_vars_3 <= 0
 cc_alt_vars_14 <= 0
 cc_alt_vars_21 <= 0
 cc_alt_vars_11 <= 0
 cc_alt_vars_12 <= 0
 cc_alt_vars_5 <= 0
 cc_alt_vars_17 <= 0
Scenario 730
Bounds
 cc_alt_vars_1 <= 0
 cc_alt_vars_22 <= 0
 cc_alt_vars_20 <= 0
 cc_alt_vars_9 <= 0
 cc_alt_vars_8 <= 0
 cc_alt_vars_7 <= 0
 cc_alt_vars_15 <= 0
 cc_alt_vars_19 <= 0
 cc_alt_vars_0 <= 0
 cc_alt_vars_3 <= 0
 cc_alt_vars_14 <= 0
 cc_alt_vars_21 <= 0
 cc_alt_vars_11 <= 0
 cc_alt_vars_12 <= 0
 cc_alt_vars_5 <= 0
 cc_alt_vars_17 <= 0
Scenario 731
Bounds
 cc_alt_vars_1 <= 0
 cc_alt_vars_22 <= 0
 cc_alt_vars_20 <= 0
 cc_alt_vars_9 <= 0
 cc_alt_vars_8 <= 0
 cc_alt_vars_7 <= 0
 cc_alt_vars_15 <= 0
 cc_alt_vars_19 <= 0
 cc_alt_vars_2 <= 0
 cc_alt_vars_3 <= 0
 cc_alt_vars_14 <= 0
 cc_alt_vars_21 <= 0
 cc_alt_vars_11 <= 0
 cc_alt_vars_4 <= 0
 cc_alt_vars_12 <= 0
 cc_alt_vars_17 <= 0
Scenario 732
Bounds
 cc_alt_vars_22 <= 0
 cc_alt_vars_20 <= 0
 cc_alt_vars_9 <= 0
 cc_alt_vars_8 <= 0
 cc_alt_vars_7 <= 0
 cc_alt_vars_15 <= 0
 cc_alt_vars_19 <= 0
 cc_alt_vars_2 <= 0
 cc_alt_vars_0 <= 0
 cc_alt_vars_3 <= 0
 cc_alt_vars_14 <= 0
 cc_alt_vars_21 <= 0
 cc_alt_vars_11 <= 0
 cc_alt_vars_4 <= 0
 cc_alt_vars_12 <= 0
 cc_alt_vars_17 <= 0
Scenario 733
Bounds
 cc_alt_vars_1 <= 0
 cc_alt_vars_22 <= 0
 cc_alt_vars_20 <= 0
 cc_alt_vars_9 <= 0
 cc_alt_vars_8 <= 0
 cc_alt_vars_7 <= 0
 cc_alt_vars_15 <= 0
 cc_alt_vars_19 <= 0
 cc_alt_vars_0 <= 0
 cc_alt_vars_3 <= 0
 cc_alt_vars_14 <= 0
 cc_alt_vars_21 <= 0
 cc_alt_vars_11 <= 0
 cc_alt_vars_4 <= 0
 cc_alt_vars_12 <= 0
 cc_alt_vars_17 <= 0
Scenario 734
Bounds
 cc_alt_vars_1 <= 0
 cc_alt_vars_22 <= 0
 cc_alt_vars_20 <= 0
 cc_alt_vars_9 <= 0
 cc_alt_vars_8 <= 0
 cc_alt_vars_15 <= 0
 cc_alt_vars_19 <= 0
 cc_alt_vars_2 <= 0
 cc_alt_vars_6 <= 0
 cc_alt_vars_14 <= 0
 cc_alt_vars_21 <= 0
 cc_alt_vars_11 <= 0
 cc_alt_vars_4 <= 0
 cc_alt_vars_12 <= 0
 cc_alt_vars_5 <= 0
 cc_alt_vars_17 <= 0
Scenario 735
Bounds
 cc_alt_vars_22 <= 0
 cc_alt_vars_20 <= 0
 cc_alt_vars_9 <= 0
 cc_alt_vars_8 <= 0
 cc_alt_vars_15 <= 0
 cc_alt_vars_19 <= 0
 cc_alt_vars_2 <= 0
 cc_alt_vars_0 <= 0
 cc_alt_vars_6 <= 0
 cc_alt_vars_14 <= 0
 cc_alt_vars_21 <= 0
 cc_alt_vars_11 <= 0
 cc_alt_vars_4 <= 0
 cc_alt_vars_12 <= 0
 cc_alt_vars_5 <= 0
 cc_alt_vars_17 <= 0
Scenario 736
Bounds
 cc_alt_vars_1 <= 0
 cc_alt_vars_22 <= 0
 cc_alt_vars_20 <= 0
 cc_alt_vars_9 <= 0
 cc_alt_vars_8 <= 0
 cc_alt_vars_15 <= 0
 cc_alt_vars_19 <= 0
 cc_alt_vars_0 <= 0
 cc_alt_vars_6 <= 0
 cc_alt_vars_14 <= 0
 cc_alt_vars_21 <= 0
 cc_alt_vars_11 <= 0
 cc_alt_vars_4 <= 0
 cc_alt_vars_12 <= 0
 cc_alt_vars_5 <= 0
 cc_alt_vars_17 <= 0
Scenario 737
Bounds
 cc_alt_vars_1 <= 0
 cc_alt_vars_22 <= 0
 cc_alt_vars_20 <= 0
 cc_alt_vars_9 <= 0
 cc_alt_vars_8 <= 0
 cc_alt_vars_15 <= 0
 cc_alt_vars_19 <= 0
 cc_alt_vars_2 <= 0
 cc_alt_vars_6 <= 0
 cc_alt_vars_3 <= 0
 cc_alt_vars_14 <= 0
 cc_alt_vars_21 <= 0
 cc_alt_vars_11 <= 0
 cc_alt_vars_12 <= 0
 cc_alt_vars_5 <= 0
 cc_alt_vars_17 <= 0
Scenario 738
Bounds
 cc_alt_vars_22 <= 0
 cc_alt_vars_20 <= 0
 cc_alt_vars_9 <= 0
 cc_alt_vars_8 <= 0
 cc_alt_vars_15 <= 0
 cc_alt_vars_19 <= 0
 cc_alt_vars_2 <= 0
 cc_alt_vars_0 <= 0
 cc_alt_vars_6 <= 0
 cc_alt_vars_3 <= 0
 cc_alt_vars_14 <= 0
 cc_alt_vars_21 <= 0
 cc_alt_vars_11 <= 0
 cc_alt_vars_12 <= 0
 cc_alt_vars_5 <= 0
 cc_alt_vars_17 <= 0
Scenario 739
Bounds
 cc_alt_vars_1 <= 0
 cc_alt_vars_22 <= 0
 cc_alt_vars_20 <= 0
 cc_alt_vars_9 <= 0
 cc_alt_vars_8 <= 0
 cc_alt_vars_15 <= 0
 cc_alt_vars_19 <= 0
 cc_alt_vars_0 <= 0
 cc_alt_vars_6 <= 0
 cc_alt_vars_3 <= 0
 cc_alt_vars_14 <= 0
 cc_alt_vars_21 <= 0
 cc_alt_vars_11 <= 0
 cc_alt_vars_12 <= 0
 cc_alt_vars_5 <= 0
 cc_alt_vars_17 <= 0
Scenario 740
Bounds
 cc_alt_vars_1 <= 0
 cc_alt_vars_22 <= 0
 cc_alt_vars_20 <= 0
 cc_alt_vars_9 <= 0
 cc_alt_vars_8 <= 0
 cc_alt_vars_15 <= 0
 cc_alt_vars_19 <= 0
 cc_alt_vars_2 <= 0
 cc_alt_vars_6 <= 0
 cc_alt_vars_3 <= 0
 cc_alt_vars_14 <= 0
 cc_alt_vars_21 <= 0
 cc_alt_vars_11 <= 0
 cc_alt_vars_4 <= 0
 cc_alt_vars_12 <= 0
 cc_alt_vars_17 <= 0
Scenario 741
Bounds
 cc_alt_vars_22 <= 0
 cc_alt_vars_20 <= 0
 cc_alt_vars_9 <= 0
 cc_alt_vars_8 <= 0
 cc_alt_vars_15 <= 0
 cc_alt_vars_19 <= 0
 cc_alt_vars_2 <= 0
 cc_alt_vars_0 <= 0
 cc_alt_vars_6 <= 0
 cc_alt_vars_3 <= 0
 cc_alt_vars_14 <= 0
 cc_alt_vars_21 <= 0
 cc_alt_vars_11 <= 0
 cc_alt_vars_4 <= 0
 cc_alt_vars_12 <= 0
 cc_alt_vars_17 <= 0
Scenario 742
Bounds
 cc_alt_vars_1 <= 0
 cc_alt_vars_22 <= 0
 cc_alt_vars_20 <= 0
 cc_alt_vars_9 <= 0
 cc_alt_vars_8 <= 0
 cc_alt_vars_15 <= 0
 cc_alt_vars_19 <= 0
 cc_alt_vars_0 <= 0
 cc_alt_vars_6 <= 0
 cc_alt_vars_3 <= 0
 cc_alt_vars_14 <= 0
 cc_alt_vars_21 <= 0
 cc_alt_vars_11 <= 0
 cc_alt_vars_4 <= 0
 cc_alt_vars_12 <= 0
 cc_alt_vars_17 <= 0
Scenario 743
Bounds
 cc_alt_vars_1 <= 0
 cc_alt_vars_22 <= 0
 cc_alt_vars_20 <= 0
 cc_alt_vars_9 <= 0
 cc_alt_vars_7 <= 0
 cc_alt_vars_15 <= 0
 cc_alt_vars_19 <= 0
 cc_alt_vars_2 <= 0
 cc_alt_vars_6 <= 0
 cc_alt_vars_14 <= 0
 cc_alt_vars_21 <= 0
 cc_alt_vars_11 <= 0
 cc_alt_vars_4 <= 0
 cc_alt_vars_12 <= 0
 cc_alt_vars_5 <= 0
 cc_alt_vars_17 <= 0
Scenario 744
Bounds
 cc_alt_vars_22 <= 0
 cc_alt_vars_20 <= 0
 cc_alt_vars_9 <= 0
 cc_alt_vars_7 <= 0
 cc_alt_vars_15 <= 0
 cc_alt_vars_19 <= 0
 cc_alt_vars_2 <= 0
 cc_alt_vars_0 <= 0
 cc_alt_vars_6 <= 0
 cc_alt_vars_14 <= 0
 cc_alt_vars_21 <= 0
 cc_alt_vars_11 <= 0
 cc_alt_vars_4 <= 0
 cc_alt_vars_12 <= 0
 cc_alt_vars_5 <= 0
 cc_alt_vars_17 <= 0
Scenario 745
Bounds
 cc_alt_vars_1 <= 0
 cc_alt_vars_22 <= 0
 cc_alt_vars_20 <= 0
 cc_alt_vars_9 <= 0
 cc_alt_vars_7 <= 0
 cc_alt_vars_15 <= 0
 cc_alt_vars_19 <= 0
 cc_alt_vars_0 <= 0
 cc_alt_vars_6 <= 0
 cc_alt_vars_14 <= 0
 cc_alt_vars_21 <= 0
 cc_alt_vars_11 <= 0
 cc_alt_vars_4 <= 0
 cc_alt_vars_12 <= 0
 cc_alt_vars_5 <= 0
 cc_alt_vars_17 <= 0
Scenario 746
Bounds
 cc_alt_vars_1 <= 0
 cc_alt_vars_22 <= 0
 cc_alt_vars_20 <= 0
 cc_alt_vars_9 <= 0
 cc_alt_vars_7 <= 0
 cc_alt_vars_15 <= 0
 cc_alt_vars_19 <= 0
 cc_alt_vars_2 <= 0
 cc_alt_vars_6 <= 0
 cc_alt_vars_3 <= 0
 cc_alt_vars_14 <= 0
 cc_alt_vars_21 <= 0
 cc_alt_vars_11 <= 0
 cc_alt_vars_12 <= 0
 cc_alt_vars_5 <= 0
 cc_alt_vars_17 <= 0
Scenario 747
Bounds
 cc_alt_vars_22 <= 0
 cc_alt_vars_20 <= 0
 cc_alt_vars_9 <= 0
 cc_alt_vars_7 <= 0
 cc_alt_vars_15 <= 0
 cc_alt_vars_19 <= 0
 cc_alt_vars_2 <= 0
 cc_alt_vars_0 <= 0
 cc_alt_vars_6 <= 0
 cc_alt_vars_3 <= 0
 cc_alt_vars_14 <= 0
 cc_alt_vars_21 <= 0
 cc_alt_vars_11 <= 0
 cc_alt_vars_12 <= 0
 cc_alt_vars_5 <= 0
 cc_alt_vars_17 <= 0
Scenario 748
Bounds
 cc_alt_vars_1 <= 0
 cc_alt_vars_22 <= 0
 cc_alt_vars_20 <= 0
 cc_alt_vars_9 <= 0
 cc_alt_vars_7 <= 0
 cc_alt_vars_15 <= 0
 cc_alt_vars_19 <= 0
 cc_alt_vars_0 <= 0
 cc_alt_vars_6 <= 0
 cc_alt_vars_3 <= 0
 cc_alt_vars_14 <= 0
 cc_alt_vars_21 <= 0
 cc_alt_vars_11 <= 0
 cc_alt_vars_12 <= 0
 cc_alt_vars_5 <= 0
 cc_alt_vars_17 <= 0
Scenario 749
Bounds
 cc_alt_vars_1 <= 0
 cc_alt_vars_22 <= 0
 cc_alt_vars_20 <= 0
 cc_alt_vars_9 <= 0
 cc_alt_vars_7 <= 0
 cc_alt_vars_15 <= 0
 cc_alt_vars_19 <= 0
 cc_alt_vars_2 <= 0
 cc_alt_vars_6 <= 0
 cc_alt_vars_3 <= 0
 cc_alt_vars_14 <= 0
 cc_alt_vars_21 <= 0
 cc_alt_vars_11 <= 0
 cc_alt_vars_4 <= 0
 cc_alt_vars_12 <= 0
 cc_alt_vars_17 <= 0
Scenario 750
Bounds
 cc_alt_vars_22 <= 0
 cc_alt_vars_20 <= 0
 cc_alt_vars_9 <= 0
 cc_alt_vars_7 <= 0
 cc_alt_vars_15 <= 0
 cc_alt_vars_19 <= 0
 cc_alt_vars_2 <= 0
 cc_alt_vars_0 <= 0
 cc_alt_vars_6 <= 0
 cc_alt_vars_3 <= 0
 cc_alt_vars_14 <= 0
 cc_alt_vars_21 <= 0
 cc_alt_vars_11 <= 0
 cc_alt_vars_4 <= 0
 cc_alt_vars_12 <= 0
 cc_alt_vars_17 <= 0
Scenario 751
Bounds
 cc_alt_vars_1 <= 0
 cc_alt_vars_22 <= 0
 cc_alt_vars_20 <= 0
 cc_alt_vars_9 <= 0
 cc_alt_vars_7 <= 0
 cc_alt_vars_15 <= 0
 cc_alt_vars_19 <= 0
 cc_alt_vars_0 <= 0
 cc_alt_vars_6 <= 0
 cc_alt_vars_3 <= 0
 cc_alt_vars_14 <= 0
 cc_alt_vars_21 <= 0
 cc_alt_vars_11 <= 0
 cc_alt_vars_4 <= 0
 cc_alt_vars_12 <= 0
 cc_alt_vars_17 <= 0
Scenario 752
Bounds
 cc_alt_vars_1 <= 0
 cc_alt_vars_22 <= 0
 cc_alt_vars_20 <= 0
 cc_alt_vars_9 <= 0
 cc_alt_vars_8 <= 0
 cc_alt_vars_7 <= 0
 cc_alt_vars_15 <= 0
 cc_alt_vars_19 <= 0
 cc_alt_vars_2 <= 0
 cc_alt_vars_14 <= 0
 cc_alt_vars_21 <= 0
 cc_alt_vars_4 <= 0
 cc_alt_vars_12 <= 0
 cc_alt_vars_5 <= 0
 cc_alt_vars_10 <= 0
 cc_alt_vars_17 <= 0
Scenario 753
Bounds
 cc_alt_vars_22 <= 0
 cc_alt_vars_20 <= 0
 cc_alt_vars_9 <= 0
 cc_alt_vars_8 <= 0
 cc_alt_vars_7 <= 0
 cc_alt_vars_15 <= 0
 cc_alt_vars_19 <= 0
 cc_alt_vars_2 <= 0
 cc_alt_vars_0 <= 0
 cc_alt_vars_14 <= 0
 cc_alt_vars_21 <= 0
 cc_alt_vars_4 <= 0
 cc_alt_vars_12 <= 0
 cc_alt_vars_5 <= 0
 cc_alt_vars_10 <= 0
 cc_alt_vars_17 <= 0
Scenario 754
Bounds
 cc_alt_vars_1 <= 0
 cc_alt_vars_22 <= 0
 cc_alt_vars_20 <= 0
 cc_alt_vars_9 <= 0
 cc_alt_vars_8 <= 0
 cc_alt_vars_7 <= 0
 cc_alt_vars_15 <= 0
 cc_alt_vars_19 <= 0
 cc_alt_vars_0 <= 0
 cc_alt_vars_14 <= 0
 cc_alt_vars_21 <= 0
 cc_alt_vars_4 <= 0
 cc_alt_vars_12 <= 0
 cc_alt_vars_5 <= 0
 cc_alt_vars_10 <= 0
 cc_alt_vars_17 <= 0
Scenario 755
Bounds
 cc_alt_vars_1 <= 0
 cc_alt_vars_22 <= 0
 cc_alt_vars_20 <= 0
 cc_alt_vars_9 <= 0
 cc_alt_vars_8 <= 0
 cc_alt_vars_7 <= 0
 cc_alt_vars_15 <= 0
 cc_alt_vars_19 <= 0
 cc_alt_vars_2 <= 0
 cc_alt_vars_3 <= 0
 cc_alt_vars_14 <= 0
 cc_alt_vars_21 <= 0
 cc_alt_vars_12 <= 0
 cc_alt_vars_5 <= 0
 cc_alt_vars_10 <= 0
 cc_alt_vars_17 <= 0
Scenario 756
Bounds
 cc_alt_vars_22 <= 0
 cc_alt_vars_20 <= 0
 cc_alt_vars_9 <= 0
 cc_alt_vars_8 <= 0
 cc_alt_vars_7 <= 0
 cc_alt_vars_15 <= 0
 cc_alt_vars_19 <= 0
 cc_alt_vars_2 <= 0
 cc_alt_vars_0 <= 0
 cc_alt_vars_3 <= 0
 cc_alt_vars_14 <= 0
 cc_alt_vars_21 <= 0
 cc_alt_vars_12 <= 0
 cc_alt_vars_5 <= 0
 cc_alt_vars_10 <= 0
 cc_alt_vars_17 <= 0
Scenario 757
Bounds
 cc_alt_vars_1 <= 0
 cc_alt_vars_22 <= 0
 cc_alt_vars_20 <= 0
 cc_alt_vars_9 <= 0
 cc_alt_vars_8 <= 0
 cc_alt_vars_7 <= 0
 cc_alt_vars_15 <= 0
 cc_alt_vars_19 <= 0
 cc_alt_vars_0 <= 0
 cc_alt_vars_3 <= 0
 cc_alt_vars_14 <= 0
 cc_alt_vars_21 <= 0
 cc_alt_vars_12 <= 0
 cc_alt_vars_5 <= 0
 cc_alt_vars_10 <= 0
 cc_alt_vars_17 <= 0
Scenario 758
Bounds
 cc_alt_vars_1 <= 0
 cc_alt_vars_22 <= 0
 cc_alt_vars_20 <= 0
 cc_alt_vars_9 <= 0
 cc_alt_vars_8 <= 0
 cc_alt_vars_7 <= 0
 cc_alt_vars_15 <= 0
 cc_alt_vars_19 <= 0
 cc_alt_vars_2 <= 0
 cc_alt_vars_3 <= 0
 cc_alt_vars_14 <= 0
 cc_alt_vars_21 <= 0
 cc_alt_vars_4 <= 0
 cc_alt_vars_12 <= 0
 cc_alt_vars_10 <= 0
 cc_alt_vars_17 <= 0
Scenario 759
Bounds
 cc_alt_vars_22 <= 0
 cc_alt_vars_20 <= 0
 cc_alt_vars_9 <= 0
 cc_alt_vars_8 <= 0
 cc_alt_vars_7 <= 0
 cc_alt_vars_15 <= 0
 cc_alt_vars_19 <= 0
 cc_alt_vars_2 <= 0
 cc_alt_vars_0 <= 0
 cc_alt_vars_3 <= 0
 cc_alt_vars_14 <= 0
 cc_alt_vars_21 <= 0
 cc_alt_vars_4 <= 0
 cc_alt_vars_12 <= 0
 cc_alt_vars_10 <= 0
 cc_alt_vars_17 <= 0
Scenario 760
Bounds
 cc_alt_vars_1 <= 0
 cc_alt_vars_22 <= 0
 cc_alt_vars_20 <= 0
 cc_alt_vars_9 <= 0
 cc_alt_vars_8 <= 0
 cc_alt_vars_7 <= 0
 cc_alt_vars_15 <= 0
 cc_alt_vars_19 <= 0
 cc_alt_vars_0 <= 0
 cc_alt_vars_3 <= 0
 cc_alt_vars_14 <= 0
 cc_alt_vars_21 <= 0
 cc_alt_vars_4 <= 0
 cc_alt_vars_12 <= 0
 cc_alt_vars_10 <= 0
 cc_alt_vars_17 <= 0
Scenario 761
Bounds
 cc_alt_vars_1 <= 0
 cc_alt_vars_22 <= 0
 cc_alt_vars_20 <= 0
 cc_alt_vars_9 <= 0
 cc_alt_vars_8 <= 0
 cc_alt_vars_15 <= 0
 cc_alt_vars_19 <= 0
 cc_alt_vars_2 <= 0
 cc_alt_vars_6 <= 0
 cc_alt_vars_14 <= 0
 cc_alt_vars_21 <= 0
 cc_alt_vars_4 <= 0
 cc_alt_vars_12 <= 0
 cc_alt_vars_5 <= 0
 cc_alt_vars_10 <= 0
 cc_alt_vars_17 <= 0
Scenario 762
Bounds
 cc_alt_vars_22 <= 0
 cc_alt_vars_20 <= 0
 cc_alt_vars_9 <= 0
 cc_alt_vars_8 <= 0
 cc_alt_vars_15 <= 0
 cc_alt_vars_19 <= 0
 cc_alt_vars_2 <= 0
 cc_alt_vars_0 <= 0
 cc_alt_vars_6 <= 0
 cc_alt_vars_14 <= 0
 cc_alt_vars_21 <= 0
 cc_alt_vars_4 <= 0
 cc_alt_vars_12 <= 0
 cc_alt_vars_5 <= 0
 cc_alt_vars_10 <= 0
 cc_alt_vars_17 <= 0
Scenario 763
Bounds
 cc_alt_vars_1 <= 0
 cc_alt_vars_22 <= 0
 cc_alt_vars_20 <= 0
 cc_alt_vars_9 <= 0
 cc_alt_vars_8 <= 0
 cc_alt_vars_15 <= 0
 cc_alt_vars_19 <= 0
 cc_alt_vars_0 <= 0
 cc_alt_vars_6 <= 0
 cc_alt_vars_14 <= 0
 cc_alt_vars_21 <= 0
 cc_alt_vars_4 <= 0
 cc_alt_vars_12 <= 0
 cc_alt_vars_5 <= 0
 cc_alt_vars_10 <= 0
 cc_alt_vars_17 <= 0
Scenario 764
Bounds
 cc_alt_vars_1 <= 0
 cc_alt_vars_22 <= 0
 cc_alt_vars_20 <= 0
 cc_alt_vars_9 <= 0
 cc_alt_vars_8 <= 0
 cc_alt_vars_15 <= 0
 cc_alt_vars_19 <= 0
 cc_alt_vars_2 <= 0
 cc_alt_vars_6 <= 0
 cc_alt_vars_3 <= 0
 cc_alt_vars_14 <= 0
 cc_alt_vars_21 <= 0
 cc_alt_vars_12 <= 0
 cc_alt_vars_5 <= 0
 cc_alt_vars_10 <= 0
 cc_alt_vars_17 <= 0
Scenario 765
Bounds
 cc_alt_vars_22 <= 0
 cc_alt_vars_20 <= 0
 cc_alt_vars_9 <= 0
 cc_alt_vars_8 <= 0
 cc_alt_vars_15 <= 0
 cc_alt_vars_19 <= 0
 cc_alt_vars_2 <= 0
 cc_alt_vars_0 <= 0
 cc_alt_vars_6 <= 0
 cc_alt_vars_3 <= 0
 cc_alt_vars_14 <= 0
 cc_alt_vars_21 <= 0
 cc_alt_vars_12 <= 0
 cc_alt_vars_5 <= 0
 cc_alt_vars_10 <= 0
 cc_alt_vars_17 <= 0
Scenario 766
Bounds
 cc_alt_vars_1 <= 0
 cc_alt_vars_22 <= 0
 cc_alt_vars_20 <= 0
 cc_alt_vars_9 <= 0
 cc_alt_vars_8 <= 0
 cc_alt_vars_15 <= 0
 cc_alt_vars_19 <= 0
 cc_alt_vars_0 <= 0
 cc_alt_vars_6 <= 0
 cc_alt_vars_3 <= 0
 cc_alt_vars_14 <= 0
 cc_alt_vars_21 <= 0
 cc_alt_vars_12 <= 0
 cc_alt_vars_5 <= 0
 cc_alt_vars_10 <= 0
 cc_alt_vars_17 <= 0
Scenario 767
Bounds
 cc_alt_vars_1 <= 0
 cc_alt_vars_22 <= 0
 cc_alt_vars_20 <= 0
 cc_alt_vars_9 <= 0
 cc_alt_vars_8 <= 0
 cc_alt_vars_15 <= 0
 cc_alt_vars_19 <= 0
 cc_alt_vars_2 <= 0
 cc_alt_vars_6 <= 0
 cc_alt_vars_3 <= 0
 cc_alt_vars_14 <= 0
 cc_alt_vars_21 <= 0
 cc_alt_vars_4 <= 0
 cc_alt_vars_12 <= 0
 cc_alt_vars_10 <= 0
 cc_alt_vars_17 <= 0
Scenario 768
Bounds
 cc_alt_vars_22 <= 0
 cc_alt_vars_20 <= 0
 cc_alt_vars_9 <= 0
 cc_alt_vars_8 <= 0
 cc_alt_vars_15 <= 0
 cc_alt_vars_19 <= 0
 cc_alt_vars_2 <= 0
 cc_alt_vars_0 <= 0
 cc_alt_vars_6 <= 0
 cc_alt_vars_3 <= 0
 cc_alt_vars_14 <= 0
 cc_alt_vars_21 <= 0
 cc_alt_vars_4 <= 0
 cc_alt_vars_12 <= 0
 cc_alt_vars_10 <= 0
 cc_alt_vars_17 <= 0
Scenario 769
Bounds
 cc_alt_vars_1 <= 0
 cc_alt_vars_22 <= 0
 cc_alt_vars_20 <= 0
 cc_alt_vars_9 <= 0
 cc_alt_vars_8 <= 0
 cc_alt_vars_15 <= 0
 cc_alt_vars_19 <= 0
 cc_alt_vars_0 <= 0
 cc_alt_vars_6 <= 0
 cc_alt_vars_3 <= 0
 cc_alt_vars_14 <= 0
 cc_alt_vars_21 <= 0
 cc_alt_vars_4 <= 0
 cc_alt_vars_12 <= 0
 cc_alt_vars_10 <= 0
 cc_alt_vars_17 <= 0
Scenario 770
Bounds
 cc_alt_vars_1 <= 0
 cc_alt_vars_22 <= 0
 cc_alt_vars_20 <= 0
 cc_alt_vars_9 <= 0
 cc_alt_vars_7 <= 0
 cc_alt_vars_15 <= 0
 cc_alt_vars_19 <= 0
 cc_alt_vars_2 <= 0
 cc_alt_vars_6 <= 0
 cc_alt_vars_14 <= 0
 cc_alt_vars_21 <= 0
 cc_alt_vars_4 <= 0
 cc_alt_vars_12 <= 0
 cc_alt_vars_5 <= 0
 cc_alt_vars_10 <= 0
 cc_alt_vars_17 <= 0
Scenario 771
Bounds
 cc_alt_vars_22 <= 0
 cc_alt_vars_20 <= 0
 cc_alt_vars_9 <= 0
 cc_alt_vars_7 <= 0
 cc_alt_vars_15 <= 0
 cc_alt_vars_19 <= 0
 cc_alt_vars_2 <= 0
 cc_alt_vars_0 <= 0
 cc_alt_vars_6 <= 0
 cc_alt_vars_14 <= 0
 cc_alt_vars_21 <= 0
 cc_alt_vars_4 <= 0
 cc_alt_vars_12 <= 0
 cc_alt_vars_5 <= 0
 cc_alt_vars_10 <= 0
 cc_alt_vars_17 <= 0
Scenario 772
Bounds
 cc_alt_vars_1 <= 0
 cc_alt_vars_22 <= 0
 cc_alt_vars_20 <= 0
 cc_alt_vars_9 <= 0
 cc_alt_vars_7 <= 0
 cc_alt_vars_15 <= 0
 cc_alt_vars_19 <= 0
 cc_alt_vars_0 <= 0
 cc_alt_vars_6 <= 0
 cc_alt_vars_14 <= 0
 cc_alt_vars_21 <= 0
 cc_alt_vars_4 <= 0
 cc_alt_vars_12 <= 0
 cc_alt_vars_5 <= 0
 cc_alt_vars_10 <= 0
 cc_alt_vars_17 <= 0
Scenario 773
Bounds
 cc_alt_vars_1 <= 0
 cc_alt_vars_22 <= 0
 cc_alt_vars_20 <= 0
 cc_alt_vars_9 <= 0
 cc_alt_vars_7 <= 0
 cc_alt_vars_15 <= 0
 cc_alt_vars_19 <= 0
 cc_alt_vars_2 <= 0
 cc_alt_vars_6 <= 0
 cc_alt_vars_3 <= 0
 cc_alt_vars_14 <= 0
 cc_alt_vars_21 <= 0
 cc_alt_vars_12 <= 0
 cc_alt_vars_5 <= 0
 cc_alt_vars_10 <= 0
 cc_alt_vars_17 <= 0
Scenario 774
Bounds
 cc_alt_vars_22 <= 0
 cc_alt_vars_20 <= 0
 cc_alt_vars_9 <= 0
 cc_alt_vars_7 <= 0
 cc_alt_vars_15 <= 0
 cc_alt_vars_19 <= 0
 cc_alt_vars_2 <= 0
 cc_alt_vars_0 <= 0
 cc_alt_vars_6 <= 0
 cc_alt_vars_3 <= 0
 cc_alt_vars_14 <= 0
 cc_alt_vars_21 <= 0
 cc_alt_vars_12 <= 0
 cc_alt_vars_5 <= 0
 cc_alt_vars_10 <= 0
 cc_alt_vars_17 <= 0
Scenario 775
Bounds
 cc_alt_vars_1 <= 0
 cc_alt_vars_22 <= 0
 cc_alt_vars_20 <= 0
 cc_alt_vars_9 <= 0
 cc_alt_vars_7 <= 0
 cc_alt_vars_15 <= 0
 cc_alt_vars_19 <= 0
 cc_alt_vars_0 <= 0
 cc_alt_vars_6 <= 0
 cc_alt_vars_3 <= 0
 cc_alt_vars_14 <= 0
 cc_alt_vars_21 <= 0
 cc_alt_vars_12 <= 0
 cc_alt_vars_5 <= 0
 cc_alt_vars_10 <= 0
 cc_alt_vars_17 <= 0
Scenario 776
Bounds
 cc_alt_vars_1 <= 0
 cc_alt_vars_22 <= 0
 cc_alt_vars_20 <= 0
 cc_alt_vars_9 <= 0
 cc_alt_vars_7 <= 0
 cc_alt_vars_15 <= 0
 cc_alt_vars_19 <= 0
 cc_alt_vars_2 <= 0
 cc_alt_vars_6 <= 0
 cc_alt_vars_3 <= 0
 cc_alt_vars_14 <= 0
 cc_alt_vars_21 <= 0
 cc_alt_vars_4 <= 0
 cc_alt_vars_12 <= 0
 cc_alt_vars_10 <= 0
 cc_alt_vars_17 <= 0
Scenario 777
Bounds
 cc_alt_vars_22 <= 0
 cc_alt_vars_20 <= 0
 cc_alt_vars_9 <= 0
 cc_alt_vars_7 <= 0
 cc_alt_vars_15 <= 0
 cc_alt_vars_19 <= 0
 cc_alt_vars_2 <= 0
 cc_alt_vars_0 <= 0
 cc_alt_vars_6 <= 0
 cc_alt_vars_3 <= 0
 cc_alt_vars_14 <= 0
 cc_alt_vars_21 <= 0
 cc_alt_vars_4 <= 0
 cc_alt_vars_12 <= 0
 cc_alt_vars_10 <= 0
 cc_alt_vars_17 <= 0
Scenario 778
Bounds
 cc_alt_vars_1 <= 0
 cc_alt_vars_22 <= 0
 cc_alt_vars_20 <= 0
 cc_alt_vars_9 <= 0
 cc_alt_vars_7 <= 0
 cc_alt_vars_15 <= 0
 cc_alt_vars_19 <= 0
 cc_alt_vars_0 <= 0
 cc_alt_vars_6 <= 0
 cc_alt_vars_3 <= 0
 cc_alt_vars_14 <= 0
 cc_alt_vars_21 <= 0
 cc_alt_vars_4 <= 0
 cc_alt_vars_12 <= 0
 cc_alt_vars_10 <= 0
 cc_alt_vars_17 <= 0
Scenario 779
Bounds
 cc_alt_vars_1 <= 0
 cc_alt_vars_22 <= 0
 cc_alt_vars_20 <= 0
 cc_alt_vars_8 <= 0
 cc_alt_vars_7 <= 0
 cc_alt_vars_15 <= 0
 cc_alt_vars_19 <= 0
 cc_alt_vars_2 <= 0
 cc_alt_vars_13 <= 0
 cc_alt_vars_21 <= 0
 cc_alt_vars_11 <= 0
 cc_alt_vars_4 <= 0
 cc_alt_vars_12 <= 0
 cc_alt_vars_5 <= 0
 cc_alt_vars_10 <= 0
 cc_alt_vars_17 <= 0
Scenario 780
Bounds
 cc_alt_vars_22 <= 0
 cc_alt_vars_20 <= 0
 cc_alt_vars_8 <= 0
 cc_alt_vars_7 <= 0
 cc_alt_vars_15 <= 0
 cc_alt_vars_19 <= 0
 cc_alt_vars_2 <= 0
 cc_alt_vars_0 <= 0
 cc_alt_vars_13 <= 0
 cc_alt_vars_21 <= 0
 cc_alt_vars_11 <= 0
 cc_alt_vars_4 <= 0
 cc_alt_vars_12 <= 0
 cc_alt_vars_5 <= 0
 cc_alt_vars_10 <= 0
 cc_alt_vars_17 <= 0
Scenario 781
Bounds
 cc_alt_vars_1 <= 0
 cc_alt_vars_22 <= 0
 cc_alt_vars_20 <= 0
 cc_alt_vars_8 <= 0
 cc_alt_vars_7 <= 0
 cc_alt_vars_15 <= 0
 cc_alt_vars_19 <= 0
 cc_alt_vars_0 <= 0
 cc_alt_vars_13 <= 0
 cc_alt_vars_21 <= 0
 cc_alt_vars_11 <= 0
 cc_alt_vars_4 <= 0
 cc_alt_vars_12 <= 0
 cc_alt_vars_5 <= 0
 cc_alt_vars_10 <= 0
 cc_alt_vars_17 <= 0
Scenario 782
Bounds
 cc_alt_vars_1 <= 0
 cc_alt_vars_22 <= 0
 cc_alt_vars_20 <= 0
 cc_alt_vars_8 <= 0
 cc_alt_vars_7 <= 0
 cc_alt_vars_15 <= 0
 cc_alt_vars_19 <= 0
 cc_alt_vars_2 <= 0
 cc_alt_vars_3 <= 0
 cc_alt_vars_13 <= 0
 cc_alt_vars_21 <= 0
 cc_alt_vars_11 <= 0
 cc_alt_vars_12 <= 0
 cc_alt_vars_5 <= 0
 cc_alt_vars_10 <= 0
 cc_alt_vars_17 <= 0
Scenario 783
Bounds
 cc_alt_vars_22 <= 0
 cc_alt_vars_20 <= 0
 cc_alt_vars_8 <= 0
 cc_alt_vars_7 <= 0
 cc_alt_vars_15 <= 0
 cc_alt_vars_19 <= 0
 cc_alt_vars_2 <= 0
 cc_alt_vars_0 <= 0
 cc_alt_vars_3 <= 0
 cc_alt_vars_13 <= 0
 cc_alt_vars_21 <= 0
 cc_alt_vars_11 <= 0
 cc_alt_vars_12 <= 0
 cc_alt_vars_5 <= 0
 cc_alt_vars_10 <= 0
 cc_alt_vars_17 <= 0
Scenario 784
Bounds
 cc_alt_vars_1 <= 0
 cc_alt_vars_22 <= 0
 cc_alt_vars_20 <= 0
 cc_alt_vars_8 <= 0
 cc_alt_vars_7 <= 0
 cc_alt_vars_15 <= 0
 cc_alt_vars_19 <= 0
 cc_alt_vars_0 <= 0
 cc_alt_vars_3 <= 0
 cc_alt_vars_13 <= 0
 cc_alt_vars_21 <= 0
 cc_alt_vars_11 <= 0
 cc_alt_vars_12 <= 0
 cc_alt_vars_5 <= 0
 cc_alt_vars_10 <= 0
 cc_alt_vars_17 <= 0
Scenario 785
Bounds
 cc_alt_vars_1 <= 0
 cc_alt_vars_22 <= 0
 cc_alt_vars_20 <= 0
 cc_alt_vars_8 <= 0
 cc_alt_vars_7 <= 0
 cc_alt_vars_15 <= 0
 cc_alt_vars_19 <= 0
 cc_alt_vars_2 <= 0
 cc_alt_vars_3 <= 0
 cc_alt_vars_13 <= 0
 cc_alt_vars_21 <= 0
 cc_alt_vars_11 <= 0
 cc_alt_vars_4 <= 0
 cc_alt_vars_12 <= 0
 cc_alt_vars_10 <= 0
 cc_alt_vars_17 <= 0
Scenario 786
Bounds
 cc_alt_vars_22 <= 0
 cc_alt_vars_20 <= 0
 cc_alt_vars_8 <= 0
 cc_alt_vars_7 <= 0
 cc_alt_vars_15 <= 0
 cc_alt_vars_19 <= 0
 cc_alt_vars_2 <= 0
 cc_alt_vars_0 <= 0
 cc_alt_vars_3 <= 0
 cc_alt_vars_13 <= 0
 cc_alt_vars_21 <= 0
 cc_alt_vars_11 <= 0
 cc_alt_vars_4 <= 0
 cc_alt_vars_12 <= 0
 cc_alt_vars_10 <= 0
 cc_alt_vars_17 <= 0
Scenario 787
Bounds
 cc_alt_vars_1 <= 0
 cc_alt_vars_22 <= 0
 cc_alt_vars_20 <= 0
 cc_alt_vars_8 <= 0
 cc_alt_vars_7 <= 0
 cc_alt_vars_15 <= 0
 cc_alt_vars_19 <= 0
 cc_alt_vars_0 <= 0
 cc_alt_vars_3 <= 0
 cc_alt_vars_13 <= 0
 cc_alt_vars_21 <= 0
 cc_alt_vars_11 <= 0
 cc_alt_vars_4 <= 0
 cc_alt_vars_12 <= 0
 cc_alt_vars_10 <= 0
 cc_alt_vars_17 <= 0
Scenario 788
Bounds
 cc_alt_vars_1 <= 0
 cc_alt_vars_22 <= 0
 cc_alt_vars_20 <= 0
 cc_alt_vars_8 <= 0
 cc_alt_vars_15 <= 0
 cc_alt_vars_19 <= 0
 cc_alt_vars_2 <= 0
 cc_alt_vars_6 <= 0
 cc_alt_vars_13 <= 0
 cc_alt_vars_21 <= 0
 cc_alt_vars_11 <= 0
 cc_alt_vars_4 <= 0
 cc_alt_vars_12 <= 0
 cc_alt_vars_5 <= 0
 cc_alt_vars_10 <= 0
 cc_alt_vars_17 <= 0
Scenario 789
Bounds
 cc_alt_vars_22 <= 0
 cc_alt_vars_20 <= 0
 cc_alt_vars_8 <= 0
 cc_alt_vars_15 <= 0
 cc_alt_vars_19 <= 0
 cc_alt_vars_2 <= 0
 cc_alt_vars_0 <= 0
 cc_alt_vars_6 <= 0
 cc_alt_vars_13 <= 0
 cc_alt_vars_21 <= 0
 cc_alt_vars_11 <= 0
 cc_alt_vars_4 <= 0
 cc_alt_vars_12 <= 0
 cc_alt_vars_5 <= 0
 cc_alt_vars_10 <= 0
 cc_alt_vars_17 <= 0
Scenario 790
Bounds
 cc_alt_vars_1 <= 0
 cc_alt_vars_22 <= 0
 cc_alt_vars_20 <= 0
 cc_alt_vars_8 <= 0
 cc_alt_vars_15 <= 0
 cc_alt_vars_19 <= 0
 cc_alt_vars_0 <= 0
 cc_alt_vars_6 <= 0
 cc_alt_vars_13 <= 0
 cc_alt_vars_21 <= 0
 cc_alt_vars_11 <= 0
 cc_alt_vars_4 <= 0
 cc_alt_vars_12 <= 0
 cc_alt_vars_5 <= 0
 cc_alt_vars_10 <= 0
 cc_alt_vars_17 <= 0
Scenario 791
Bounds
 cc_alt_vars_1 <= 0
 cc_alt_vars_22 <= 0
 cc_alt_vars_20 <= 0
 cc_alt_vars_8 <= 0
 cc_alt_vars_15 <= 0
 cc_alt_vars_19 <= 0
 cc_alt_vars_2 <= 0
 cc_alt_vars_6 <= 0
 cc_alt_vars_3 <= 0
 cc_alt_vars_13 <= 0
 cc_alt_vars_21 <= 0
 cc_alt_vars_11 <= 0
 cc_alt_vars_12 <= 0
 cc_alt_vars_5 <= 0
 cc_alt_vars_10 <= 0
 cc_alt_vars_17 <= 0
Scenario 792
Bounds
 cc_alt_vars_22 <= 0
 cc_alt_vars_20 <= 0
 cc_alt_vars_8 <= 0
 cc_alt_vars_15 <= 0
 cc_alt_vars_19 <= 0
 cc_alt_vars_2 <= 0
 cc_alt_vars_0 <= 0
 cc_alt_vars_6 <= 0
 cc_alt_vars_3 <= 0
 cc_alt_vars_13 <= 0
 cc_alt_vars_21 <= 0
 cc_alt_vars_11 <= 0
 cc_alt_vars_12 <= 0
 cc_alt_vars_5 <= 0
 cc_alt_vars_10 <= 0
 cc_alt_vars_17 <= 0
Scenario 793
Bounds
 cc_alt_vars_1 <= 0
 cc_alt_vars_22 <= 0
 cc_alt_vars_20 <= 0
 cc_alt_vars_8 <= 0
 cc_alt_vars_15 <= 0
 cc_alt_vars_19 <= 0
 cc_alt_vars_0 <= 0
 cc_alt_vars_6 <= 0
 cc_alt_vars_3 <= 0
 cc_alt_vars_13 <= 0
 cc_alt_vars_21 <= 0
 cc_alt_vars_11 <= 0
 cc_alt_vars_12 <= 0
 cc_alt_vars_5 <= 0
 cc_alt_vars_10 <= 0
 cc_alt_vars_17 <= 0
Scenario 794
Bounds
 cc_alt_vars_1 <= 0
 cc_alt_vars_22 <= 0
 cc_alt_vars_20 <= 0
 cc_alt_vars_8 <= 0
 cc_alt_vars_15 <= 0
 cc_alt_vars_19 <= 0
 cc_alt_vars_2 <= 0
 cc_alt_vars_6 <= 0
 cc_alt_vars_3 <= 0
 cc_alt_vars_13 <= 0
 cc_alt_vars_21 <= 0
 cc_alt_vars_11 <= 0
 cc_alt_vars_4 <= 0
 cc_alt_vars_12 <= 0
 cc_alt_vars_10 <= 0
 cc_alt_vars_17 <= 0
Scenario 795
Bounds
 cc_alt_vars_22 <= 0
 cc_alt_vars_20 <= 0
 cc_alt_vars_8 <= 0
 cc_alt_vars_15 <= 0
 cc_alt_vars_19 <= 0
 cc_alt_vars_2 <= 0
 cc_alt_vars_0 <= 0
 cc_alt_vars_6 <= 0
 cc_alt_vars_3 <= 0
 cc_alt_vars_13 <= 0
 cc_alt_vars_21 <= 0
 cc_alt_vars_11 <= 0
 cc_alt_vars_4 <= 0
 cc_alt_vars_12 <= 0
 cc_alt_vars_10 <= 0
 cc_alt_vars_17 <= 0
Scenario 796
Bounds
 cc_alt_vars_1 <= 0
 cc_alt_vars_22 <= 0
 cc_alt_vars_20 <= 0
 cc_alt_vars_8 <= 0
 cc_alt_vars_15 <= 0
 cc_alt_vars_19 <= 0
 cc_alt_vars_0 <= 0
 cc_alt_vars_6 <= 0
 cc_alt_vars_3 <= 0
 cc_alt_vars_13 <= 0
 cc_alt_vars_21 <= 0
 cc_alt_vars_11 <= 0
 cc_alt_vars_4 <= 0
 cc_alt_vars_12 <= 0
 cc_alt_vars_10 <= 0
 cc_alt_vars_17 <= 0
Scenario 797
Bounds
 cc_alt_vars_1 <= 0
 cc_alt_vars_22 <= 0
 cc_alt_vars_20 <= 0
 cc_alt_vars_7 <= 0
 cc_alt_vars_15 <= 0
 cc_alt_vars_19 <= 0
 cc_alt_vars_2 <= 0
 cc_alt_vars_6 <= 0
 cc_alt_vars_13 <= 0
 cc_alt_vars_21 <= 0
 cc_alt_vars_11 <= 0
 cc_alt_vars_4 <= 0
 cc_alt_vars_12 <= 0
 cc_alt_vars_5 <= 0
 cc_alt_vars_10 <= 0
 cc_alt_vars_17 <= 0
Scenario 798
Bounds
 cc_alt_vars_22 <= 0
 cc_alt_vars_20 <= 0
 cc_alt_vars_7 <= 0
 cc_alt_vars_15 <= 0
 cc_alt_vars_19 <= 0
 cc_alt_vars_2 <= 0
 cc_alt_vars_0 <= 0
 cc_alt_vars_6 <= 0
 cc_alt_vars_13 <= 0
 cc_alt_vars_21 <= 0
 cc_alt_vars_11 <= 0
 cc_alt_vars_4 <= 0
 cc_alt_vars_12 <= 0
 cc_alt_vars_5 <= 0
 cc_alt_vars_10 <= 0
 cc_alt_vars_17 <= 0
Scenario 799
Bounds
 cc_alt_vars_1 <= 0
 cc_alt_vars_22 <= 0
 cc_alt_vars_20 <= 0
 cc_alt_vars_7 <= 0
 cc_alt_vars_15 <= 0
 cc_alt_vars_19 <= 0
 cc_alt_vars_0 <= 0
 cc_alt_vars_6 <= 0
 cc_alt_vars_13 <= 0
 cc_alt_vars_21 <= 0
 cc_alt_vars_11 <= 0
 cc_alt_vars_4 <= 0
 cc_alt_vars_12 <= 0
 cc_alt_vars_5 <= 0
 cc_alt_vars_10 <= 0
 cc_alt_vars_17 <= 0
Scenario 800
Bounds
 cc_alt_vars_1 <= 0
 cc_alt_vars_22 <= 0
 cc_alt_vars_20 <= 0
 cc_alt_vars_7 <= 0
 cc_alt_vars_15 <= 0
 cc_alt_vars_19 <= 0
 cc_alt_vars_2 <= 0
 cc_alt_vars_6 <= 0
 cc_alt_vars_3 <= 0
 cc_alt_vars_13 <= 0
 cc_alt_vars_21 <= 0
 cc_alt_vars_11 <= 0
 cc_alt_vars_12 <= 0
 cc_alt_vars_5 <= 0
 cc_alt_vars_10 <= 0
 cc_alt_vars_17 <= 0
Scenario 801
Bounds
 cc_alt_vars_22 <= 0
 cc_alt_vars_20 <= 0
 cc_alt_vars_7 <= 0
 cc_alt_vars_15 <= 0
 cc_alt_vars_19 <= 0
 cc_alt_vars_2 <= 0
 cc_alt_vars_0 <= 0
 cc_alt_vars_6 <= 0
 cc_alt_vars_3 <= 0
 cc_alt_vars_13 <= 0
 cc_alt_vars_21 <= 0
 cc_alt_vars_11 <= 0
 cc_alt_vars_12 <= 0
 cc_alt_vars_5 <= 0
 cc_alt_vars_10 <= 0
 cc_alt_vars_17 <= 0
Scenario 802
Bounds
 cc_alt_vars_1 <= 0
 cc_alt_vars_22 <= 0
 cc_alt_vars_20 <= 0
 cc_alt_vars_7 <= 0
 cc_alt_vars_15 <= 0
 cc_alt_vars_19 <= 0
 cc_alt_vars_0 <= 0
 cc_alt_vars_6 <= 0
 cc_alt_vars_3 <= 0
 cc_alt_vars_13 <= 0
 cc_alt_vars_21 <= 0
 cc_alt_vars_11 <= 0
 cc_alt_vars_12 <= 0
 cc_alt_vars_5 <= 0
 cc_alt_vars_10 <= 0
 cc_alt_vars_17 <= 0
Scenario 803
Bounds
 cc_alt_vars_1 <= 0
 cc_alt_vars_22 <= 0
 cc_alt_vars_20 <= 0
 cc_alt_vars_7 <= 0
 cc_alt_vars_15 <= 0
 cc_alt_vars_19 <= 0
 cc_alt_vars_2 <= 0
 cc_alt_vars_6 <= 0
 cc_alt_vars_3 <= 0
 cc_alt_vars_13 <= 0
 cc_alt_vars_21 <= 0
 cc_alt_vars_11 <= 0
 cc_alt_vars_4 <= 0
 cc_alt_vars_12 <= 0
 cc_alt_vars_10 <= 0
 cc_alt_vars_17 <= 0
Scenario 804
Bounds
 cc_alt_vars_22 <= 0
 cc_alt_vars_20 <= 0
 cc_alt_vars_7 <= 0
 cc_alt_vars_15 <= 0
 cc_alt_vars_19 <= 0
 cc_alt_vars_2 <= 0
 cc_alt_vars_0 <= 0
 cc_alt_vars_6 <= 0
 cc_alt_vars_3 <= 0
 cc_alt_vars_13 <= 0
 cc_alt_vars_21 <= 0
 cc_alt_vars_11 <= 0
 cc_alt_vars_4 <= 0
 cc_alt_vars_12 <= 0
 cc_alt_vars_10 <= 0
 cc_alt_vars_17 <= 0
Scenario 805
Bounds
 cc_alt_vars_1 <= 0
 cc_alt_vars_22 <= 0
 cc_alt_vars_20 <= 0
 cc_alt_vars_7 <= 0
 cc_alt_vars_15 <= 0
 cc_alt_vars_19 <= 0
 cc_alt_vars_0 <= 0
 cc_alt_vars_6 <= 0
 cc_alt_vars_3 <= 0
 cc_alt_vars_13 <= 0
 cc_alt_vars_21 <= 0
 cc_alt_vars_11 <= 0
 cc_alt_vars_4 <= 0
 cc_alt_vars_12 <= 0
 cc_alt_vars_10 <= 0
 cc_alt_vars_17 <= 0
Scenario 806
Bounds
 cc_alt_vars_1 <= 0
 cc_alt_vars_22 <= 0
 cc_alt_vars_20 <= 0
 cc_alt_vars_9 <= 0
 cc_alt_vars_8 <= 0
 cc_alt_vars_7 <= 0
 cc_alt_vars_15 <= 0
 cc_alt_vars_19 <= 0
 cc_alt_vars_2 <= 0
 cc_alt_vars_13 <= 0
 cc_alt_vars_21 <= 0
 cc_alt_vars_11 <= 0
 cc_alt_vars_4 <= 0
 cc_alt_vars_12 <= 0
 cc_alt_vars_5 <= 0
 cc_alt_vars_17 <= 0
Scenario 807
Bounds
 cc_alt_vars_22 <= 0
 cc_alt_vars_20 <= 0
 cc_alt_vars_9 <= 0
 cc_alt_vars_8 <= 0
 cc_alt_vars_7 <= 0
 cc_alt_vars_15 <= 0
 cc_alt_vars_19 <= 0
 cc_alt_vars_2 <= 0
 cc_alt_vars_0 <= 0
 cc_alt_vars_13 <= 0
 cc_alt_vars_21 <= 0
 cc_alt_vars_11 <= 0
 cc_alt_vars_4 <= 0
 cc_alt_vars_12 <= 0
 cc_alt_vars_5 <= 0
 cc_alt_vars_17 <= 0
Scenario 808
Bounds
 cc_alt_vars_1 <= 0
 cc_alt_vars_22 <= 0
 cc_alt_vars_20 <= 0
 cc_alt_vars_9 <= 0
 cc_alt_vars_8 <= 0
 cc_alt_vars_7 <= 0
 cc_alt_vars_15 <= 0
 cc_alt_vars_19 <= 0
 cc_alt_vars_0 <= 0
 cc_alt_vars_13 <= 0
 cc_alt_vars_21 <= 0
 cc_alt_vars_11 <= 0
 cc_alt_vars_4 <= 0
 cc_alt_vars_12 <= 0
 cc_alt_vars_5 <= 0
 cc_alt_vars_17 <= 0
Scenario 809
Bounds
 cc_alt_vars_1 <= 0
 cc_alt_vars_22 <= 0
 cc_alt_vars_20 <= 0
 cc_alt_vars_9 <= 0
 cc_alt_vars_8 <= 0
 cc_alt_vars_7 <= 0
 cc_alt_vars_15 <= 0
 cc_alt_vars_19 <= 0
 cc_alt_vars_2 <= 0
 cc_alt_vars_3 <= 0
 cc_alt_vars_13 <= 0
 cc_alt_vars_21 <= 0
 cc_alt_vars_11 <= 0
 cc_alt_vars_12 <= 0
 cc_alt_vars_5 <= 0
 cc_alt_vars_17 <= 0
Scenario 810
Bounds
 cc_alt_vars_22 <= 0
 cc_alt_vars_20 <= 0
 cc_alt_vars_9 <= 0
 cc_alt_vars_8 <= 0
 cc_alt_vars_7 <= 0
 cc_alt_vars_15 <= 0
 cc_alt_vars_19 <= 0
 cc_alt_vars_2 <= 0
 cc_alt_vars_0 <= 0
 cc_alt_vars_3 <= 0
 cc_alt_vars_13 <= 0
 cc_alt_vars_21 <= 0
 cc_alt_vars_11 <= 0
 cc_alt_vars_12 <= 0
 cc_alt_vars_5 <= 0
 cc_alt_vars_17 <= 0
Scenario 811
Bounds
 cc_alt_vars_1 <= 0
 cc_alt_vars_22 <= 0
 cc_alt_vars_20 <= 0
 cc_alt_vars_9 <= 0
 cc_alt_vars_8 <= 0
 cc_alt_vars_7 <= 0
 cc_alt_vars_15 <= 0
 cc_alt_vars_19 <= 0
 cc_alt_vars_0 <= 0
 cc_alt_vars_3 <= 0
 cc_alt_vars_13 <= 0
 cc_alt_vars_21 <= 0
 cc_alt_vars_11 <= 0
 cc_alt_vars_12 <= 0
 cc_alt_vars_5 <= 0
 cc_alt_vars_17 <= 0
Scenario 812
Bounds
 cc_alt_vars_1 <= 0
 cc_alt_vars_22 <= 0
 cc_alt_vars_20 <= 0
 cc_alt_vars_9 <= 0
 cc_alt_vars_8 <= 0
 cc_alt_vars_7 <= 0
 cc_alt_vars_15 <= 0
 cc_alt_vars_19 <= 0
 cc_alt_vars_2 <= 0
 cc_alt_vars_3 <= 0
 cc_alt_vars_13 <= 0
 cc_alt_vars_21 <= 0
 cc_alt_vars_11 <= 0
 cc_alt_vars_4 <= 0
 cc_alt_vars_12 <= 0
 cc_alt_vars_17 <= 0
Scenario 813
Bounds
 cc_alt_vars_22 <= 0
 cc_alt_vars_20 <= 0
 cc_alt_vars_9 <= 0
 cc_alt_vars_8 <= 0
 cc_alt_vars_7 <= 0
 cc_alt_vars_15 <= 0
 cc_alt_vars_19 <= 0
 cc_alt_vars_2 <= 0
 cc_alt_vars_0 <= 0
 cc_alt_vars_3 <= 0
 cc_alt_vars_13 <= 0
 cc_alt_vars_21 <= 0
 cc_alt_vars_11 <= 0
 cc_alt_vars_4 <= 0
 cc_alt_vars_12 <= 0
 cc_alt_vars_17 <= 0
Scenario 814
Bounds
 cc_alt_vars_1 <= 0
 cc_alt_vars_22 <= 0
 cc_alt_vars_20 <= 0
 cc_alt_vars_9 <= 0
 cc_alt_vars_8 <= 0
 cc_alt_vars_7 <= 0
 cc_alt_vars_15 <= 0
 cc_alt_vars_19 <= 0
 cc_alt_vars_0 <= 0
 cc_alt_vars_3 <= 0
 cc_alt_vars_13 <= 0
 cc_alt_vars_21 <= 0
 cc_alt_vars_11 <= 0
 cc_alt_vars_4 <= 0
 cc_alt_vars_12 <= 0
 cc_alt_vars_17 <= 0
Scenario 815
Bounds
 cc_alt_vars_1 <= 0
 cc_alt_vars_22 <= 0
 cc_alt_vars_20 <= 0
 cc_alt_vars_9 <= 0
 cc_alt_vars_8 <= 0
 cc_alt_vars_15 <= 0
 cc_alt_vars_19 <= 0
 cc_alt_vars_2 <= 0
 cc_alt_vars_6 <= 0
 cc_alt_vars_13 <= 0
 cc_alt_vars_21 <= 0
 cc_alt_vars_11 <= 0
 cc_alt_vars_4 <= 0
 cc_alt_vars_12 <= 0
 cc_alt_vars_5 <= 0
 cc_alt_vars_17 <= 0
Scenario 816
Bounds
 cc_alt_vars_22 <= 0
 cc_alt_vars_20 <= 0
 cc_alt_vars_9 <= 0
 cc_alt_vars_8 <= 0
 cc_alt_vars_15 <= 0
 cc_alt_vars_19 <= 0
 cc_alt_vars_2 <= 0
 cc_alt_vars_0 <= 0
 cc_alt_vars_6 <= 0
 cc_alt_vars_13 <= 0
 cc_alt_vars_21 <= 0
 cc_alt_vars_11 <= 0
 cc_alt_vars_4 <= 0
 cc_alt_vars_12 <= 0
 cc_alt_vars_5 <= 0
 cc_alt_vars_17 <= 0
Scenario 817
Bounds
 cc_alt_vars_1 <= 0
 cc_alt_vars_22 <= 0
 cc_alt_vars_20 <= 0
 cc_alt_vars_9 <= 0
 cc_alt_vars_8 <= 0
 cc_alt_vars_15 <= 0
 cc_alt_vars_19 <= 0
 cc_alt_vars_0 <= 0
 cc_alt_vars_6 <= 0
 cc_alt_vars_13 <= 0
 cc_alt_vars_21 <= 0
 cc_alt_vars_11 <= 0
 cc_alt_vars_4 <= 0
 cc_alt_vars_12 <= 0
 cc_alt_vars_5 <= 0
 cc_alt_vars_17 <= 0
Scenario 818
Bounds
 cc_alt_vars_1 <= 0
 cc_alt_vars_22 <= 0
 cc_alt_vars_20 <= 0
 cc_alt_vars_9 <= 0
 cc_alt_vars_8 <= 0
 cc_alt_vars_15 <= 0
 cc_alt_vars_19 <= 0
 cc_alt_vars_2 <= 0
 cc_alt_vars_6 <= 0
 cc_alt_vars_3 <= 0
 cc_alt_vars_13 <= 0
 cc_alt_vars_21 <= 0
 cc_alt_vars_11 <= 0
 cc_alt_vars_12 <= 0
 cc_alt_vars_5 <= 0
 cc_alt_vars_17 <= 0
Scenario 819
Bounds
 cc_alt_vars_22 <= 0
 cc_alt_vars_20 <= 0
 cc_alt_vars_9 <= 0
 cc_alt_vars_8 <= 0
 cc_alt_vars_15 <= 0
 cc_alt_vars_19 <= 0
 cc_alt_vars_2 <= 0
 cc_alt_vars_0 <= 0
 cc_alt_vars_6 <= 0
 cc_alt_vars_3 <= 0
 cc_alt_vars_13 <= 0
 cc_alt_vars_21 <= 0
 cc_alt_vars_11 <= 0
 cc_alt_vars_12 <= 0
 cc_alt_vars_5 <= 0
 cc_alt_vars_17 <= 0
Scenario 820
Bounds
 cc_alt_vars_1 <= 0
 cc_alt_vars_22 <= 0
 cc_alt_vars_20 <= 0
 cc_alt_vars_9 <= 0
 cc_alt_vars_8 <= 0
 cc_alt_vars_15 <= 0
 cc_alt_vars_19 <= 0
 cc_alt_vars_0 <= 0
 cc_alt_vars_6 <= 0
 cc_alt_vars_3 <= 0
 cc_alt_vars_13 <= 0
 cc_alt_vars_21 <= 0
 cc_alt_vars_11 <= 0
 cc_alt_vars_12 <= 0
 cc_alt_vars_5 <= 0
 cc_alt_vars_17 <= 0
Scenario 821
Bounds
 cc_alt_vars_1 <= 0
 cc_alt_vars_22 <= 0
 cc_alt_vars_20 <= 0
 cc_alt_vars_9 <= 0
 cc_alt_vars_8 <= 0
 cc_alt_vars_15 <= 0
 cc_alt_vars_19 <= 0
 cc_alt_vars_2 <= 0
 cc_alt_vars_6 <= 0
 cc_alt_vars_3 <= 0
 cc_alt_vars_13 <= 0
 cc_alt_vars_21 <= 0
 cc_alt_vars_11 <= 0
 cc_alt_vars_4 <= 0
 cc_alt_vars_12 <= 0
 cc_alt_vars_17 <= 0
Scenario 822
Bounds
 cc_alt_vars_22 <= 0
 cc_alt_vars_20 <= 0
 cc_alt_vars_9 <= 0
 cc_alt_vars_8 <= 0
 cc_alt_vars_15 <= 0
 cc_alt_vars_19 <= 0
 cc_alt_vars_2 <= 0
 cc_alt_vars_0 <= 0
 cc_alt_vars_6 <= 0
 cc_alt_vars_3 <= 0
 cc_alt_vars_13 <= 0
 cc_alt_vars_21 <= 0
 cc_alt_vars_11 <= 0
 cc_alt_vars_4 <= 0
 cc_alt_vars_12 <= 0
 cc_alt_vars_17 <= 0
Scenario 823
Bounds
 cc_alt_vars_1 <= 0
 cc_alt_vars_22 <= 0
 cc_alt_vars_20 <= 0
 cc_alt_vars_9 <= 0
 cc_alt_vars_8 <= 0
 cc_alt_vars_15 <= 0
 cc_alt_vars_19 <= 0
 cc_alt_vars_0 <= 0
 cc_alt_vars_6 <= 0
 cc_alt_vars_3 <= 0
 cc_alt_vars_13 <= 0
 cc_alt_vars_21 <= 0
 cc_alt_vars_11 <= 0
 cc_alt_vars_4 <= 0
 cc_alt_vars_12 <= 0
 cc_alt_vars_17 <= 0
Scenario 824
Bounds
 cc_alt_vars_1 <= 0
 cc_alt_vars_22 <= 0
 cc_alt_vars_20 <= 0
 cc_alt_vars_9 <= 0
 cc_alt_vars_7 <= 0
 cc_alt_vars_15 <= 0
 cc_alt_vars_19 <= 0
 cc_alt_vars_2 <= 0
 cc_alt_vars_6 <= 0
 cc_alt_vars_13 <= 0
 cc_alt_vars_21 <= 0
 cc_alt_vars_11 <= 0
 cc_alt_vars_4 <= 0
 cc_alt_vars_12 <= 0
 cc_alt_vars_5 <= 0
 cc_alt_vars_17 <= 0
Scenario 825
Bounds
 cc_alt_vars_22 <= 0
 cc_alt_vars_20 <= 0
 cc_alt_vars_9 <= 0
 cc_alt_vars_7 <= 0
 cc_alt_vars_15 <= 0
 cc_alt_vars_19 <= 0
 cc_alt_vars_2 <= 0
 cc_alt_vars_0 <= 0
 cc_alt_vars_6 <= 0
 cc_alt_vars_13 <= 0
 cc_alt_vars_21 <= 0
 cc_alt_vars_11 <= 0
 cc_alt_vars_4 <= 0
 cc_alt_vars_12 <= 0
 cc_alt_vars_5 <= 0
 cc_alt_vars_17 <= 0
Scenario 826
Bounds
 cc_alt_vars_1 <= 0
 cc_alt_vars_22 <= 0
 cc_alt_vars_20 <= 0
 cc_alt_vars_9 <= 0
 cc_alt_vars_7 <= 0
 cc_alt_vars_15 <= 0
 cc_alt_vars_19 <= 0
 cc_alt_vars_0 <= 0
 cc_alt_vars_6 <= 0
 cc_alt_vars_13 <= 0
 cc_alt_vars_21 <= 0
 cc_alt_vars_11 <= 0
 cc_alt_vars_4 <= 0
 cc_alt_vars_12 <= 0
 cc_alt_vars_5 <= 0
 cc_alt_vars_17 <= 0
Scenario 827
Bounds
 cc_alt_vars_1 <= 0
 cc_alt_vars_22 <= 0
 cc_alt_vars_20 <= 0
 cc_alt_vars_9 <= 0
 cc_alt_vars_7 <= 0
 cc_alt_vars_15 <= 0
 cc_alt_vars_19 <= 0
 cc_alt_vars_2 <= 0
 cc_alt_vars_6 <= 0
 cc_alt_vars_3 <= 0
 cc_alt_vars_13 <= 0
 cc_alt_vars_21 <= 0
 cc_alt_vars_11 <= 0
 cc_alt_vars_12 <= 0
 cc_alt_vars_5 <= 0
 cc_alt_vars_17 <= 0
Scenario 828
Bounds
 cc_alt_vars_22 <= 0
 cc_alt_vars_20 <= 0
 cc_alt_vars_9 <= 0
 cc_alt_vars_7 <= 0
 cc_alt_vars_15 <= 0
 cc_alt_vars_19 <= 0
 cc_alt_vars_2 <= 0
 cc_alt_vars_0 <= 0
 cc_alt_vars_6 <= 0
 cc_alt_vars_3 <= 0
 cc_alt_vars_13 <= 0
 cc_alt_vars_21 <= 0
 cc_alt_vars_11 <= 0
 cc_alt_vars_12 <= 0
 cc_alt_vars_5 <= 0
 cc_alt_vars_17 <= 0
Scenario 829
Bounds
 cc_alt_vars_1 <= 0
 cc_alt_vars_22 <= 0
 cc_alt_vars_20 <= 0
 cc_alt_vars_9 <= 0
 cc_alt_vars_7 <= 0
 cc_alt_vars_15 <= 0
 cc_alt_vars_19 <= 0
 cc_alt_vars_0 <= 0
 cc_alt_vars_6 <= 0
 cc_alt_vars_3 <= 0
 cc_alt_vars_13 <= 0
 cc_alt_vars_21 <= 0
 cc_alt_vars_11 <= 0
 cc_alt_vars_12 <= 0
 cc_alt_vars_5 <= 0
 cc_alt_vars_17 <= 0
Scenario 830
Bounds
 cc_alt_vars_1 <= 0
 cc_alt_vars_22 <= 0
 cc_alt_vars_20 <= 0
 cc_alt_vars_9 <= 0
 cc_alt_vars_7 <= 0
 cc_alt_vars_15 <= 0
 cc_alt_vars_19 <= 0
 cc_alt_vars_2 <= 0
 cc_alt_vars_6 <= 0
 cc_alt_vars_3 <= 0
 cc_alt_vars_13 <= 0
 cc_alt_vars_21 <= 0
 cc_alt_vars_11 <= 0
 cc_alt_vars_4 <= 0
 cc_alt_vars_12 <= 0
 cc_alt_vars_17 <= 0
Scenario 831
Bounds
 cc_alt_vars_22 <= 0
 cc_alt_vars_20 <= 0
 cc_alt_vars_9 <= 0
 cc_alt_vars_7 <= 0
 cc_alt_vars_15 <= 0
 cc_alt_vars_19 <= 0
 cc_alt_vars_2 <= 0
 cc_alt_vars_0 <= 0
 cc_alt_vars_6 <= 0
 cc_alt_vars_3 <= 0
 cc_alt_vars_13 <= 0
 cc_alt_vars_21 <= 0
 cc_alt_vars_11 <= 0
 cc_alt_vars_4 <= 0
 cc_alt_vars_12 <= 0
 cc_alt_vars_17 <= 0
Scenario 832
Bounds
 cc_alt_vars_1 <= 0
 cc_alt_vars_22 <= 0
 cc_alt_vars_20 <= 0
 cc_alt_vars_9 <= 0
 cc_alt_vars_7 <= 0
 cc_alt_vars_15 <= 0
 cc_alt_vars_19 <= 0
 cc_alt_vars_0 <= 0
 cc_alt_vars_6 <= 0
 cc_alt_vars_3 <= 0
 cc_alt_vars_13 <= 0
 cc_alt_vars_21 <= 0
 cc_alt_vars_11 <= 0
 cc_alt_vars_4 <= 0
 cc_alt_vars_12 <= 0
 cc_alt_vars_17 <= 0
Scenario 833
Bounds
 cc_alt_vars_1 <= 0
 cc_alt_vars_22 <= 0
 cc_alt_vars_20 <= 0
 cc_alt_vars_9 <= 0
 cc_alt_vars_8 <= 0
 cc_alt_vars_7 <= 0
 cc_alt_vars_15 <= 0
 cc_alt_vars_19 <= 0
 cc_alt_vars_2 <= 0
 cc_alt_vars_13 <= 0
 cc_alt_vars_21 <= 0
 cc_alt_vars_4 <= 0
 cc_alt_vars_12 <= 0
 cc_alt_vars_5 <= 0
 cc_alt_vars_10 <= 0
 cc_alt_vars_17 <= 0
Scenario 834
Bounds
 cc_alt_vars_22 <= 0
 cc_alt_vars_20 <= 0
 cc_alt_vars_9 <= 0
 cc_alt_vars_8 <= 0
 cc_alt_vars_7 <= 0
 cc_alt_vars_15 <= 0
 cc_alt_vars_19 <= 0
 cc_alt_vars_2 <= 0
 cc_alt_vars_0 <= 0
 cc_alt_vars_13 <= 0
 cc_alt_vars_21 <= 0
 cc_alt_vars_4 <= 0
 cc_alt_vars_12 <= 0
 cc_alt_vars_5 <= 0
 cc_alt_vars_10 <= 0
 cc_alt_vars_17 <= 0
Scenario 835
Bounds
 cc_alt_vars_1 <= 0
 cc_alt_vars_22 <= 0
 cc_alt_vars_20 <= 0
 cc_alt_vars_9 <= 0
 cc_alt_vars_8 <= 0
 cc_alt_vars_7 <= 0
 cc_alt_vars_15 <= 0
 cc_alt_vars_19 <= 0
 cc_alt_vars_0 <= 0
 cc_alt_vars_13 <= 0
 cc_alt_vars_21 <= 0
 cc_alt_vars_4 <= 0
 cc_alt_vars_12 <= 0
 cc_alt_vars_5 <= 0
 cc_alt_vars_10 <= 0
 cc_alt_vars_17 <= 0
Scenario 836
Bounds
 cc_alt_vars_1 <= 0
 cc_alt_vars_22 <= 0
 cc_alt_vars_20 <= 0
 cc_alt_vars_9 <= 0
 cc_alt_vars_8 <= 0
 cc_alt_vars_7 <= 0
 cc_alt_vars_15 <= 0
 cc_alt_vars_19 <= 0
 cc_alt_vars_2 <= 0
 cc_alt_vars_3 <= 0
 cc_alt_vars_13 <= 0
 cc_alt_vars_21 <= 0
 cc_alt_vars_12 <= 0
 cc_alt_vars_5 <= 0
 cc_alt_vars_10 <= 0
 cc_alt_vars_17 <= 0
Scenario 837
Bounds
 cc_alt_vars_22 <= 0
 cc_alt_vars_20 <= 0
 cc_alt_vars_9 <= 0
 cc_alt_vars_8 <= 0
 cc_alt_vars_7 <= 0
 cc_alt_vars_15 <= 0
 cc_alt_vars_19 <= 0
 cc_alt_vars_2 <= 0
 cc_alt_vars_0 <= 0
 cc_alt_vars_3 <= 0
 cc_alt_vars_13 <= 0
 cc_alt_vars_21 <= 0
 cc_alt_vars_12 <= 0
 cc_alt_vars_5 <= 0
 cc_alt_vars_10 <= 0
 cc_alt_vars_17 <= 0
Scenario 838
Bounds
 cc_alt_vars_1 <= 0
 cc_alt_vars_22 <= 0
 cc_alt_vars_20 <= 0
 cc_alt_vars_9 <= 0
 cc_alt_vars_8 <= 0
 cc_alt_vars_7 <= 0
 cc_alt_vars_15 <= 0
 cc_alt_vars_19 <= 0
 cc_alt_vars_0 <= 0
 cc_alt_vars_3 <= 0
 cc_alt_vars_13 <= 0
 cc_alt_vars_21 <= 0
 cc_alt_vars_12 <= 0
 cc_alt_vars_5 <= 0
 cc_alt_vars_10 <= 0
 cc_alt_vars_17 <= 0
Scenario 839
Bounds
 cc_alt_vars_1 <= 0
 cc_alt_vars_22 <= 0
 cc_alt_vars_20 <= 0
 cc_alt_vars_9 <= 0
 cc_alt_vars_8 <= 0
 cc_alt_vars_7 <= 0
 cc_alt_vars_15 <= 0
 cc_alt_vars_19 <= 0
 cc_alt_vars_2 <= 0
 cc_alt_vars_3 <= 0
 cc_alt_vars_13 <= 0
 cc_alt_vars_21 <= 0
 cc_alt_vars_4 <= 0
 cc_alt_vars_12 <= 0
 cc_alt_vars_10 <= 0
 cc_alt_vars_17 <= 0
Scenario 840
Bounds
 cc_alt_vars_22 <= 0
 cc_alt_vars_20 <= 0
 cc_alt_vars_9 <= 0
 cc_alt_vars_8 <= 0
 cc_alt_vars_7 <= 0
 cc_alt_vars_15 <= 0
 cc_alt_vars_19 <= 0
 cc_alt_vars_2 <= 0
 cc_alt_vars_0 <= 0
 cc_alt_vars_3 <= 0
 cc_alt_vars_13 <= 0
 cc_alt_vars_21 <= 0
 cc_alt_vars_4 <= 0
 cc_alt_vars_12 <= 0
 cc_alt_vars_10 <= 0
 cc_alt_vars_17 <= 0
Scenario 841
Bounds
 cc_alt_vars_1 <= 0
 cc_alt_vars_22 <= 0
 cc_alt_vars_20 <= 0
 cc_alt_vars_9 <= 0
 cc_alt_vars_8 <= 0
 cc_alt_vars_7 <= 0
 cc_alt_vars_15 <= 0
 cc_alt_vars_19 <= 0
 cc_alt_vars_0 <= 0
 cc_alt_vars_3 <= 0
 cc_alt_vars_13 <= 0
 cc_alt_vars_21 <= 0
 cc_alt_vars_4 <= 0
 cc_alt_vars_12 <= 0
 cc_alt_vars_10 <= 0
 cc_alt_vars_17 <= 0
Scenario 842
Bounds
 cc_alt_vars_1 <= 0
 cc_alt_vars_22 <= 0
 cc_alt_vars_20 <= 0
 cc_alt_vars_9 <= 0
 cc_alt_vars_8 <= 0
 cc_alt_vars_15 <= 0
 cc_alt_vars_19 <= 0
 cc_alt_vars_2 <= 0
 cc_alt_vars_6 <= 0
 cc_alt_vars_13 <= 0
 cc_alt_vars_21 <= 0
 cc_alt_vars_4 <= 0
 cc_alt_vars_12 <= 0
 cc_alt_vars_5 <= 0
 cc_alt_vars_10 <= 0
 cc_alt_vars_17 <= 0
Scenario 843
Bounds
 cc_alt_vars_22 <= 0
 cc_alt_vars_20 <= 0
 cc_alt_vars_9 <= 0
 cc_alt_vars_8 <= 0
 cc_alt_vars_15 <= 0
 cc_alt_vars_19 <= 0
 cc_alt_vars_2 <= 0
 cc_alt_vars_0 <= 0
 cc_alt_vars_6 <= 0
 cc_alt_vars_13 <= 0
 cc_alt_vars_21 <= 0
 cc_alt_vars_4 <= 0
 cc_alt_vars_12 <= 0
 cc_alt_vars_5 <= 0
 cc_alt_vars_10 <= 0
 cc_alt_vars_17 <= 0
Scenario 844
Bounds
 cc_alt_vars_1 <= 0
 cc_alt_vars_22 <= 0
 cc_alt_vars_20 <= 0
 cc_alt_vars_9 <= 0
 cc_alt_vars_8 <= 0
 cc_alt_vars_15 <= 0
 cc_alt_vars_19 <= 0
 cc_alt_vars_0 <= 0
 cc_alt_vars_6 <= 0
 cc_alt_vars_13 <= 0
 cc_alt_vars_21 <= 0
 cc_alt_vars_4 <= 0
 cc_alt_vars_12 <= 0
 cc_alt_vars_5 <= 0
 cc_alt_vars_10 <= 0
 cc_alt_vars_17 <= 0
Scenario 845
Bounds
 cc_alt_vars_1 <= 0
 cc_alt_vars_22 <= 0
 cc_alt_vars_20 <= 0
 cc_alt_vars_9 <= 0
 cc_alt_vars_8 <= 0
 cc_alt_vars_15 <= 0
 cc_alt_vars_19 <= 0
 cc_alt_vars_2 <= 0
 cc_alt_vars_6 <= 0
 cc_alt_vars_3 <= 0
 cc_alt_vars_13 <= 0
 cc_alt_vars_21 <= 0
 cc_alt_vars_12 <= 0
 cc_alt_vars_5 <= 0
 cc_alt_vars_10 <= 0
 cc_alt_vars_17 <= 0
Scenario 846
Bounds
 cc_alt_vars_22 <= 0
 cc_alt_vars_20 <= 0
 cc_alt_vars_9 <= 0
 cc_alt_vars_8 <= 0
 cc_alt_vars_15 <= 0
 cc_alt_vars_19 <= 0
 cc_alt_vars_2 <= 0
 cc_alt_vars_0 <= 0
 cc_alt_vars_6 <= 0
 cc_alt_vars_3 <= 0
 cc_alt_vars_13 <= 0
 cc_alt_vars_21 <= 0
 cc_alt_vars_12 <= 0
 cc_alt_vars_5 <= 0
 cc_alt_vars_10 <= 0
 cc_alt_vars_17 <= 0
Scenario 847
Bounds
 cc_alt_vars_1 <= 0
 cc_alt_vars_22 <= 0
 cc_alt_vars_20 <= 0
 cc_alt_vars_9 <= 0
 cc_alt_vars_8 <= 0
 cc_alt_vars_15 <= 0
 cc_alt_vars_19 <= 0
 cc_alt_vars_0 <= 0
 cc_alt_vars_6 <= 0
 cc_alt_vars_3 <= 0
 cc_alt_vars_13 <= 0
 cc_alt_vars_21 <= 0
 cc_alt_vars_12 <= 0
 cc_alt_vars_5 <= 0
 cc_alt_vars_10 <= 0
 cc_alt_vars_17 <= 0
Scenario 848
Bounds
 cc_alt_vars_1 <= 0
 cc_alt_vars_22 <= 0
 cc_alt_vars_20 <= 0
 cc_alt_vars_9 <= 0
 cc_alt_vars_8 <= 0
 cc_alt_vars_15 <= 0
 cc_alt_vars_19 <= 0
 cc_alt_vars_2 <= 0
 cc_alt_vars_6 <= 0
 cc_alt_vars_3 <= 0
 cc_alt_vars_13 <= 0
 cc_alt_vars_21 <= 0
 cc_alt_vars_4 <= 0
 cc_alt_vars_12 <= 0
 cc_alt_vars_10 <= 0
 cc_alt_vars_17 <= 0
Scenario 849
Bounds
 cc_alt_vars_22 <= 0
 cc_alt_vars_20 <= 0
 cc_alt_vars_9 <= 0
 cc_alt_vars_8 <= 0
 cc_alt_vars_15 <= 0
 cc_alt_vars_19 <= 0
 cc_alt_vars_2 <= 0
 cc_alt_vars_0 <= 0
 cc_alt_vars_6 <= 0
 cc_alt_vars_3 <= 0
 cc_alt_vars_13 <= 0
 cc_alt_vars_21 <= 0
 cc_alt_vars_4 <= 0
 cc_alt_vars_12 <= 0
 cc_alt_vars_10 <= 0
 cc_alt_vars_17 <= 0
Scenario 850
Bounds
 cc_alt_vars_1 <= 0
 cc_alt_vars_22 <= 0
 cc_alt_vars_20 <= 0
 cc_alt_vars_9 <= 0
 cc_alt_vars_8 <= 0
 cc_alt_vars_15 <= 0
 cc_alt_vars_19 <= 0
 cc_alt_vars_0 <= 0
 cc_alt_vars_6 <= 0
 cc_alt_vars_3 <= 0
 cc_alt_vars_13 <= 0
 cc_alt_vars_21 <= 0
 cc_alt_vars_4 <= 0
 cc_alt_vars_12 <= 0
 cc_alt_vars_10 <= 0
 cc_alt_vars_17 <= 0
Scenario 851
Bounds
 cc_alt_vars_1 <= 0
 cc_alt_vars_22 <= 0
 cc_alt_vars_20 <= 0
 cc_alt_vars_9 <= 0
 cc_alt_vars_7 <= 0
 cc_alt_vars_15 <= 0
 cc_alt_vars_19 <= 0
 cc_alt_vars_2 <= 0
 cc_alt_vars_6 <= 0
 cc_alt_vars_13 <= 0
 cc_alt_vars_21 <= 0
 cc_alt_vars_4 <= 0
 cc_alt_vars_12 <= 0
 cc_alt_vars_5 <= 0
 cc_alt_vars_10 <= 0
 cc_alt_vars_17 <= 0
Scenario 852
Bounds
 cc_alt_vars_22 <= 0
 cc_alt_vars_20 <= 0
 cc_alt_vars_9 <= 0
 cc_alt_vars_7 <= 0
 cc_alt_vars_15 <= 0
 cc_alt_vars_19 <= 0
 cc_alt_vars_2 <= 0
 cc_alt_vars_0 <= 0
 cc_alt_vars_6 <= 0
 cc_alt_vars_13 <= 0
 cc_alt_vars_21 <= 0
 cc_alt_vars_4 <= 0
 cc_alt_vars_12 <= 0
 cc_alt_vars_5 <= 0
 cc_alt_vars_10 <= 0
 cc_alt_vars_17 <= 0
Scenario 853
Bounds
 cc_alt_vars_1 <= 0
 cc_alt_vars_22 <= 0
 cc_alt_vars_20 <= 0
 cc_alt_vars_9 <= 0
 cc_alt_vars_7 <= 0
 cc_alt_vars_15 <= 0
 cc_alt_vars_19 <= 0
 cc_alt_vars_0 <= 0
 cc_alt_vars_6 <= 0
 cc_alt_vars_13 <= 0
 cc_alt_vars_21 <= 0
 cc_alt_vars_4 <= 0
 cc_alt_vars_12 <= 0
 cc_alt_vars_5 <= 0
 cc_alt_vars_10 <= 0
 cc_alt_vars_17 <= 0
Scenario 854
Bounds
 cc_alt_vars_1 <= 0
 cc_alt_vars_22 <= 0
 cc_alt_vars_20 <= 0
 cc_alt_vars_9 <= 0
 cc_alt_vars_7 <= 0
 cc_alt_vars_15 <= 0
 cc_alt_vars_19 <= 0
 cc_alt_vars_2 <= 0
 cc_alt_vars_6 <= 0
 cc_alt_vars_3 <= 0
 cc_alt_vars_13 <= 0
 cc_alt_vars_21 <= 0
 cc_alt_vars_12 <= 0
 cc_alt_vars_5 <= 0
 cc_alt_vars_10 <= 0
 cc_alt_vars_17 <= 0
Scenario 855
Bounds
 cc_alt_vars_22 <= 0
 cc_alt_vars_20 <= 0
 cc_alt_vars_9 <= 0
 cc_alt_vars_7 <= 0
 cc_alt_vars_15 <= 0
 cc_alt_vars_19 <= 0
 cc_alt_vars_2 <= 0
 cc_alt_vars_0 <= 0
 cc_alt_vars_6 <= 0
 cc_alt_vars_3 <= 0
 cc_alt_vars_13 <= 0
 cc_alt_vars_21 <= 0
 cc_alt_vars_12 <= 0
 cc_alt_vars_5 <= 0
 cc_alt_vars_10 <= 0
 cc_alt_vars_17 <= 0
Scenario 856
Bounds
 cc_alt_vars_1 <= 0
 cc_alt_vars_22 <= 0
 cc_alt_vars_20 <= 0
 cc_alt_vars_9 <= 0
 cc_alt_vars_7 <= 0
 cc_alt_vars_15 <= 0
 cc_alt_vars_19 <= 0
 cc_alt_vars_0 <= 0
 cc_alt_vars_6 <= 0
 cc_alt_vars_3 <= 0
 cc_alt_vars_13 <= 0
 cc_alt_vars_21 <= 0
 cc_alt_vars_12 <= 0
 cc_alt_vars_5 <= 0
 cc_alt_vars_10 <= 0
 cc_alt_vars_17 <= 0
Scenario 857
Bounds
 cc_alt_vars_1 <= 0
 cc_alt_vars_22 <= 0
 cc_alt_vars_20 <= 0
 cc_alt_vars_9 <= 0
 cc_alt_vars_7 <= 0
 cc_alt_vars_15 <= 0
 cc_alt_vars_19 <= 0
 cc_alt_vars_2 <= 0
 cc_alt_vars_6 <= 0
 cc_alt_vars_3 <= 0
 cc_alt_vars_13 <= 0
 cc_alt_vars_21 <= 0
 cc_alt_vars_4 <= 0
 cc_alt_vars_12 <= 0
 cc_alt_vars_10 <= 0
 cc_alt_vars_17 <= 0
Scenario 858
Bounds
 cc_alt_vars_22 <= 0
 cc_alt_vars_20 <= 0
 cc_alt_vars_9 <= 0
 cc_alt_vars_7 <= 0
 cc_alt_vars_15 <= 0
 cc_alt_vars_19 <= 0
 cc_alt_vars_2 <= 0
 cc_alt_vars_0 <= 0
 cc_alt_vars_6 <= 0
 cc_alt_vars_3 <= 0
 cc_alt_vars_13 <= 0
 cc_alt_vars_21 <= 0
 cc_alt_vars_4 <= 0
 cc_alt_vars_12 <= 0
 cc_alt_vars_10 <= 0
 cc_alt_vars_17 <= 0
Scenario 859
Bounds
 cc_alt_vars_1 <= 0
 cc_alt_vars_22 <= 0
 cc_alt_vars_20 <= 0
 cc_alt_vars_9 <= 0
 cc_alt_vars_7 <= 0
 cc_alt_vars_15 <= 0
 cc_alt_vars_19 <= 0
 cc_alt_vars_0 <= 0
 cc_alt_vars_6 <= 0
 cc_alt_vars_3 <= 0
 cc_alt_vars_13 <= 0
 cc_alt_vars_21 <= 0
 cc_alt_vars_4 <= 0
 cc_alt_vars_12 <= 0
 cc_alt_vars_10 <= 0
 cc_alt_vars_17 <= 0
Scenario 860
Bounds
 cc_alt_vars_1 <= 0
 cc_alt_vars_22 <= 0
 cc_alt_vars_20 <= 0
 cc_alt_vars_8 <= 0
 cc_alt_vars_7 <= 0
 cc_alt_vars_15 <= 0
 cc_alt_vars_19 <= 0
 cc_alt_vars_2 <= 0
 cc_alt_vars_13 <= 0
 cc_alt_vars_14 <= 0
 cc_alt_vars_16 <= 0
 cc_alt_vars_21 <= 0
 cc_alt_vars_11 <= 0
 cc_alt_vars_4 <= 0
 cc_alt_vars_5 <= 0
 cc_alt_vars_10 <= 0
Scenario 861
Bounds
 cc_alt_vars_22 <= 0
 cc_alt_vars_20 <= 0
 cc_alt_vars_8 <= 0
 cc_alt_vars_7 <= 0
 cc_alt_vars_15 <= 0
 cc_alt_vars_19 <= 0
 cc_alt_vars_2 <= 0
 cc_alt_vars_0 <= 0
 cc_alt_vars_13 <= 0
 cc_alt_vars_14 <= 0
 cc_alt_vars_16 <= 0
 cc_alt_vars_21 <= 0
 cc_alt_vars_11 <= 0
 cc_alt_vars_4 <= 0
 cc_alt_vars_5 <= 0
 cc_alt_vars_10 <= 0
Scenario 862
Bounds
 cc_alt_vars_1 <= 0
 cc_alt_vars_22 <= 0
 cc_alt_vars_20 <= 0
 cc_alt_vars_8 <= 0
 cc_alt_vars_7 <= 0
 cc_alt_vars_15 <= 0
 cc_alt_vars_19 <= 0
 cc_alt_vars_0 <= 0
 cc_alt_vars_13 <= 0
 cc_alt_vars_14 <= 0
 cc_alt_vars_16 <= 0
 cc_alt_vars_21 <= 0
 cc_alt_vars_11 <= 0
 cc_alt_vars_4 <= 0
 cc_alt_vars_5 <= 0
 cc_alt_vars_10 <= 0
Scenario 863
Bounds
 cc_alt_vars_1 <= 0
 cc_alt_vars_22 <= 0
 cc_alt_vars_20 <= 0
 cc_alt_vars_8 <= 0
 cc_alt_vars_7 <= 0
 cc_alt_vars_15 <= 0
 cc_alt_vars_19 <= 0
 cc_alt_vars_2 <= 0
 cc_alt_vars_3 <= 0
 cc_alt_vars_13 <= 0
 cc_alt_vars_14 <= 0
 cc_alt_vars_16 <= 0
 cc_alt_vars_21 <= 0
 cc_alt_vars_11 <= 0
 cc_alt_vars_5 <= 0
 cc_alt_vars_10 <= 0
Scenario 864
Bounds
 cc_alt_vars_22 <= 0
 cc_alt_vars_20 <= 0
 cc_alt_vars_8 <= 0
 cc_alt_vars_7 <= 0
 cc_alt_vars_15 <= 0
 cc_alt_vars_19 <= 0
 cc_alt_vars_2 <= 0
 cc_alt_vars_0 <= 0
 cc_alt_vars_3 <= 0
 cc_alt_vars_13 <= 0
 cc_alt_vars_14 <= 0
 cc_alt_vars_16 <= 0
 cc_alt_vars_21 <= 0
 cc_alt_vars_11 <= 0
 cc_alt_vars_5 <= 0
 cc_alt_vars_10 <= 0
Scenario 865
Bounds
 cc_alt_vars_1 <= 0
 cc_alt_vars_22 <= 0
 cc_alt_vars_20 <= 0
 cc_alt_vars_8 <= 0
 cc_alt_vars_7 <= 0
 cc_alt_vars_15 <= 0
 cc_alt_vars_19 <= 0
 cc_alt_vars_0 <= 0
 cc_alt_vars_3 <= 0
 cc_alt_vars_13 <= 0
 cc_alt_vars_14 <= 0
 cc_alt_vars_16 <= 0
 cc_alt_vars_21 <= 0
 cc_alt_vars_11 <= 0
 cc_alt_vars_5 <= 0
 cc_alt_vars_10 <= 0
Scenario 866
Bounds
 cc_alt_vars_1 <= 0
 cc_alt_vars_22 <= 0
 cc_alt_vars_20 <= 0
 cc_alt_vars_8 <= 0
 cc_alt_vars_7 <= 0
 cc_alt_vars_15 <= 0
 cc_alt_vars_19 <= 0
 cc_alt_vars_2 <= 0
 cc_alt_vars_3 <= 0
 cc_alt_vars_13 <= 0
 cc_alt_vars_14 <= 0
 cc_alt_vars_16 <= 0
 cc_alt_vars_21 <= 0
 cc_alt_vars_11 <= 0
 cc_alt_vars_4 <= 0
 cc_alt_vars_10 <= 0
Scenario 867
Bounds
 cc_alt_vars_22 <= 0
 cc_alt_vars_20 <= 0
 cc_alt_vars_8 <= 0
 cc_alt_vars_7 <= 0
 cc_alt_vars_15 <= 0
 cc_alt_vars_19 <= 0
 cc_alt_vars_2 <= 0
 cc_alt_vars_0 <= 0
 cc_alt_vars_3 <= 0
 cc_alt_vars_13 <= 0
 cc_alt_vars_14 <= 0
 cc_alt_vars_16 <= 0
 cc_alt_vars_21 <= 0
 cc_alt_vars_11 <= 0
 cc_alt_vars_4 <= 0
 cc_alt_vars_10 <= 0
Scenario 868
Bounds
 cc_alt_vars_1 <= 0
 cc_alt_vars_22 <= 0
 cc_alt_vars_20 <= 0
 cc_alt_vars_8 <= 0
 cc_alt_vars_7 <= 0
 cc_alt_vars_15 <= 0
 cc_alt_vars_19 <= 0
 cc_alt_vars_0 <= 0
 cc_alt_vars_3 <= 0
 cc_alt_vars_13 <= 0
 cc_alt_vars_14 <= 0
 cc_alt_vars_16 <= 0
 cc_alt_vars_21 <= 0
 cc_alt_vars_11 <= 0
 cc_alt_vars_4 <= 0
 cc_alt_vars_10 <= 0
Scenario 869
Bounds
 cc_alt_vars_1 <= 0
 cc_alt_vars_22 <= 0
 cc_alt_vars_20 <= 0
 cc_alt_vars_8 <= 0
 cc_alt_vars_15 <= 0
 cc_alt_vars_19 <= 0
 cc_alt_vars_2 <= 0
 cc_alt_vars_6 <= 0
 cc_alt_vars_13 <= 0
 cc_alt_vars_14 <= 0
 cc_alt_vars_16 <= 0
 cc_alt_vars_21 <= 0
 cc_alt_vars_11 <= 0
 cc_alt_vars_4 <= 0
 cc_alt_vars_5 <= 0
 cc_alt_vars_10 <= 0
Scenario 870
Bounds
 cc_alt_vars_22 <= 0
 cc_alt_vars_20 <= 0
 cc_alt_vars_8 <= 0
 cc_alt_vars_15 <= 0
 cc_alt_vars_19 <= 0
 cc_alt_vars_2 <= 0
 cc_alt_vars_0 <= 0
 cc_alt_vars_6 <= 0
 cc_alt_vars_13 <= 0
 cc_alt_vars_14 <= 0
 cc_alt_vars_16 <= 0
 cc_alt_vars_21 <= 0
 cc_alt_vars_11 <= 0
 cc_alt_vars_4 <= 0
 cc_alt_vars_5 <= 0
 cc_alt_vars_10 <= 0
Scenario 871
Bounds
 cc_alt_vars_1 <= 0
 cc_alt_vars_22 <= 0
 cc_alt_vars_20 <= 0
 cc_alt_vars_8 <= 0
 cc_alt_vars_15 <= 0
 cc_alt_vars_19 <= 0
 cc_alt_vars_0 <= 0
 cc_alt_vars_6 <= 0
 cc_alt_vars_13 <= 0
 cc_alt_vars_14 <= 0
 cc_alt_vars_16 <= 0
 cc_alt_vars_21 <= 0
 cc_alt_vars_11 <= 0
 cc_alt_vars_4 <= 0
 cc_alt_vars_5 <= 0
 cc_alt_vars_10 <= 0
Scenario 872
Bounds
 cc_alt_vars_1 <= 0
 cc_alt_vars_22 <= 0
 cc_alt_vars_20 <= 0
 cc_alt_vars_8 <= 0
 cc_alt_vars_15 <= 0
 cc_alt_vars_19 <= 0
 cc_alt_vars_2 <= 0
 cc_alt_vars_6 <= 0
 cc_alt_vars_3 <= 0
 cc_alt_vars_13 <= 0
 cc_alt_vars_14 <= 0
 cc_alt_vars_16 <= 0
 cc_alt_vars_21 <= 0
 cc_alt_vars_11 <= 0
 cc_alt_vars_5 <= 0
 cc_alt_vars_10 <= 0
Scenario 873
Bounds
 cc_alt_vars_22 <= 0
 cc_alt_vars_20 <= 0
 cc_alt_vars_8 <= 0
 cc_alt_vars_15 <= 0
 cc_alt_vars_19 <= 0
 cc_alt_vars_2 <= 0
 cc_alt_vars_0 <= 0
 cc_alt_vars_6 <= 0
 cc_alt_vars_3 <= 0
 cc_alt_vars_13 <= 0
 cc_alt_vars_14 <= 0
 cc_alt_vars_16 <= 0
 cc_alt_vars_21 <= 0
 cc_alt_vars_11 <= 0
 cc_alt_vars_5 <= 0
 cc_alt_vars_10 <= 0
Scenario 874
Bounds
 cc_alt_vars_1 <= 0
 cc_alt_vars_22 <= 0
 cc_alt_vars_20 <= 0
 cc_alt_vars_8 <= 0
 cc_alt_vars_15 <= 0
 cc_alt_vars_19 <= 0
 cc_alt_vars_0 <= 0
 cc_alt_vars_6 <= 0
 cc_alt_vars_3 <= 0
 cc_alt_vars_13 <= 0
 cc_alt_vars_14 <= 0
 cc_alt_vars_16 <= 0
 cc_alt_vars_21 <= 0
 cc_alt_vars_11 <= 0
 cc_alt_vars_5 <= 0
 cc_alt_vars_10 <= 0
Scenario 875
Bounds
 cc_alt_vars_1 <= 0
 cc_alt_vars_22 <= 0
 cc_alt_vars_20 <= 0
 cc_alt_vars_8 <= 0
 cc_alt_vars_15 <= 0
 cc_alt_vars_19 <= 0
 cc_alt_vars_2 <= 0
 cc_alt_vars_6 <= 0
 cc_alt_vars_3 <= 0
 cc_alt_vars_13 <= 0
 cc_alt_vars_14 <= 0
 cc_alt_vars_16 <= 0
 cc_alt_vars_21 <= 0
 cc_alt_vars_11 <= 0
 cc_alt_vars_4 <= 0
 cc_alt_vars_10 <= 0
Scenario 876
Bounds
 cc_alt_vars_22 <= 0
 cc_alt_vars_20 <= 0
 cc_alt_vars_8 <= 0
 cc_alt_vars_15 <= 0
 cc_alt_vars_19 <= 0
 cc_alt_vars_2 <= 0
 cc_alt_vars_0 <= 0
 cc_alt_vars_6 <= 0
 cc_alt_vars_3 <= 0
 cc_alt_vars_13 <= 0
 cc_alt_vars_14 <= 0
 cc_alt_vars_16 <= 0
 cc_alt_vars_21 <= 0
 cc_alt_vars_11 <= 0
 cc_alt_vars_4 <= 0
 cc_alt_vars_10 <= 0
Scenario 877
Bounds
 cc_alt_vars_1 <= 0
 cc_alt_vars_22 <= 0
 cc_alt_vars_20 <= 0
 cc_alt_vars_8 <= 0
 cc_alt_vars_15 <= 0
 cc_alt_vars_19 <= 0
 cc_alt_vars_0 <= 0
 cc_alt_vars_6 <= 0
 cc_alt_vars_3 <= 0
 cc_alt_vars_13 <= 0
 cc_alt_vars_14 <= 0
 cc_alt_vars_16 <= 0
 cc_alt_vars_21 <= 0
 cc_alt_vars_11 <= 0
 cc_alt_vars_4 <= 0
 cc_alt_vars_10 <= 0
Scenario 878
Bounds
 cc_alt_vars_1 <= 0
 cc_alt_vars_22 <= 0
 cc_alt_vars_20 <= 0
 cc_alt_vars_7 <= 0
 cc_alt_vars_15 <= 0
 cc_alt_vars_19 <= 0
 cc_alt_vars_2 <= 0
 cc_alt_vars_6 <= 0
 cc_alt_vars_13 <= 0
 cc_alt_vars_14 <= 0
 cc_alt_vars_16 <= 0
 cc_alt_vars_21 <= 0
 cc_alt_vars_11 <= 0
 cc_alt_vars_4 <= 0
 cc_alt_vars_5 <= 0
 cc_alt_vars_10 <= 0
Scenario 879
Bounds
 cc_alt_vars_22 <= 0
 cc_alt_vars_20 <= 0
 cc_alt_vars_7 <= 0
 cc_alt_vars_15 <= 0
 cc_alt_vars_19 <= 0
 cc_alt_vars_2 <= 0
 cc_alt_vars_0 <= 0
 cc_alt_vars_6 <= 0
 cc_alt_vars_13 <= 0
 cc_alt_vars_14 <= 0
 cc_alt_vars_16 <= 0
 cc_alt_vars_21 <= 0
 cc_alt_vars_11 <= 0
 cc_alt_vars_4 <= 0
 cc_alt_vars_5 <= 0
 cc_alt_vars_10 <= 0
Scenario 880
Bounds
 cc_alt_vars_1 <= 0
 cc_alt_vars_22 <= 0
 cc_alt_vars_20 <= 0
 cc_alt_vars_7 <= 0
 cc_alt_vars_15 <= 0
 cc_alt_vars_19 <= 0
 cc_alt_vars_0 <= 0
 cc_alt_vars_6 <= 0
 cc_alt_vars_13 <= 0
 cc_alt_vars_14 <= 0
 cc_alt_vars_16 <= 0
 cc_alt_vars_21 <= 0
 cc_alt_vars_11 <= 0
 cc_alt_vars_4 <= 0
 cc_alt_vars_5 <= 0
 cc_alt_vars_10 <= 0
Scenario 881
Bounds
 cc_alt_vars_1 <= 0
 cc_alt_vars_22 <= 0
 cc_alt_vars_20 <= 0
 cc_alt_vars_7 <= 0
 cc_alt_vars_15 <= 0
 cc_alt_vars_19 <= 0
 cc_alt_vars_2 <= 0
 cc_alt_vars_6 <= 0
 cc_alt_vars_3 <= 0
 cc_alt_vars_13 <= 0
 cc_alt_vars_14 <= 0
 cc_alt_vars_16 <= 0
 cc_alt_vars_21 <= 0
 cc_alt_vars_11 <= 0
 cc_alt_vars_5 <= 0
 cc_alt_vars_10 <= 0
Scenario 882
Bounds
 cc_alt_vars_22 <= 0
 cc_alt_vars_20 <= 0
 cc_alt_vars_7 <= 0
 cc_alt_vars_15 <= 0
 cc_alt_vars_19 <= 0
 cc_alt_vars_2 <= 0
 cc_alt_vars_0 <= 0
 cc_alt_vars_6 <= 0
 cc_alt_vars_3 <= 0
 cc_alt_vars_13 <= 0
 cc_alt_vars_14 <= 0
 cc_alt_vars_16 <= 0
 cc_alt_vars_21 <= 0
 cc_alt_vars_11 <= 0
 cc_alt_vars_5 <= 0
 cc_alt_vars_10 <= 0
Scenario 883
Bounds
 cc_alt_vars_1 <= 0
 cc_alt_vars_22 <= 0
 cc_alt_vars_20 <= 0
 cc_alt_vars_7 <= 0
 cc_alt_vars_15 <= 0
 cc_alt_vars_19 <= 0
 cc_alt_vars_0 <= 0
 cc_alt_vars_6 <= 0
 cc_alt_vars_3 <= 0
 cc_alt_vars_13 <= 0
 cc_alt_vars_14 <= 0
 cc_alt_vars_16 <= 0
 cc_alt_vars_21 <= 0
 cc_alt_vars_11 <= 0
 cc_alt_vars_5 <= 0
 cc_alt_vars_10 <= 0
Scenario 884
Bounds
 cc_alt_vars_1 <= 0
 cc_alt_vars_22 <= 0
 cc_alt_vars_20 <= 0
 cc_alt_vars_7 <= 0
 cc_alt_vars_15 <= 0
 cc_alt_vars_19 <= 0
 cc_alt_vars_2 <= 0
 cc_alt_vars_6 <= 0
 cc_alt_vars_3 <= 0
 cc_alt_vars_13 <= 0
 cc_alt_vars_14 <= 0
 cc_alt_vars_16 <= 0
 cc_alt_vars_21 <= 0
 cc_alt_vars_11 <= 0
 cc_alt_vars_4 <= 0
 cc_alt_vars_10 <= 0
Scenario 885
Bounds
 cc_alt_vars_22 <= 0
 cc_alt_vars_20 <= 0
 cc_alt_vars_7 <= 0
 cc_alt_vars_15 <= 0
 cc_alt_vars_19 <= 0
 cc_alt_vars_2 <= 0
 cc_alt_vars_0 <= 0
 cc_alt_vars_6 <= 0
 cc_alt_vars_3 <= 0
 cc_alt_vars_13 <= 0
 cc_alt_vars_14 <= 0
 cc_alt_vars_16 <= 0
 cc_alt_vars_21 <= 0
 cc_alt_vars_11 <= 0
 cc_alt_vars_4 <= 0
 cc_alt_vars_10 <= 0
Scenario 886
Bounds
 cc_alt_vars_1 <= 0
 cc_alt_vars_22 <= 0
 cc_alt_vars_20 <= 0
 cc_alt_vars_7 <= 0
 cc_alt_vars_15 <= 0
 cc_alt_vars_19 <= 0
 cc_alt_vars_0 <= 0
 cc_alt_vars_6 <= 0
 cc_alt_vars_3 <= 0
 cc_alt_vars_13 <= 0
 cc_alt_vars_14 <= 0
 cc_alt_vars_16 <= 0
 cc_alt_vars_21 <= 0
 cc_alt_vars_11 <= 0
 cc_alt_vars_4 <= 0
 cc_alt_vars_10 <= 0
Scenario 887
Bounds
 cc_alt_vars_1 <= 0
 cc_alt_vars_22 <= 0
 cc_alt_vars_20 <= 0
 cc_alt_vars_9 <= 0
 cc_alt_vars_8 <= 0
 cc_alt_vars_7 <= 0
 cc_alt_vars_15 <= 0
 cc_alt_vars_19 <= 0
 cc_alt_vars_2 <= 0
 cc_alt_vars_13 <= 0
 cc_alt_vars_14 <= 0
 cc_alt_vars_16 <= 0
 cc_alt_vars_21 <= 0
 cc_alt_vars_11 <= 0
 cc_alt_vars_4 <= 0
 cc_alt_vars_5 <= 0
Scenario 888
Bounds
 cc_alt_vars_22 <= 0
 cc_alt_vars_20 <= 0
 cc_alt_vars_9 <= 0
 cc_alt_vars_8 <= 0
 cc_alt_vars_7 <= 0
 cc_alt_vars_15 <= 0
 cc_alt_vars_19 <= 0
 cc_alt_vars_2 <= 0
 cc_alt_vars_0 <= 0
 cc_alt_vars_13 <= 0
 cc_alt_vars_14 <= 0
 cc_alt_vars_16 <= 0
 cc_alt_vars_21 <= 0
 cc_alt_vars_11 <= 0
 cc_alt_vars_4 <= 0
 cc_alt_vars_5 <= 0
Scenario 889
Bounds
 cc_alt_vars_1 <= 0
 cc_alt_vars_22 <= 0
 cc_alt_vars_20 <= 0
 cc_alt_vars_9 <= 0
 cc_alt_vars_8 <= 0
 cc_alt_vars_7 <= 0
 cc_alt_vars_15 <= 0
 cc_alt_vars_19 <= 0
 cc_alt_vars_0 <= 0
 cc_alt_vars_13 <= 0
 cc_alt_vars_14 <= 0
 cc_alt_vars_16 <= 0
 cc_alt_vars_21 <= 0
 cc_alt_vars_11 <= 0
 cc_alt_vars_4 <= 0
 cc_alt_vars_5 <= 0
Scenario 890
Bounds
 cc_alt_vars_1 <= 0
 cc_alt_vars_22 <= 0
 cc_alt_vars_20 <= 0
 cc_alt_vars_9 <= 0
 cc_alt_vars_8 <= 0
 cc_alt_vars_7 <= 0
 cc_alt_vars_15 <= 0
 cc_alt_vars_19 <= 0
 cc_alt_vars_2 <= 0
 cc_alt_vars_3 <= 0
 cc_alt_vars_13 <= 0
 cc_alt_vars_14 <= 0
 cc_alt_vars_16 <= 0
 cc_alt_vars_21 <= 0
 cc_alt_vars_11 <= 0
 cc_alt_vars_5 <= 0
Scenario 891
Bounds
 cc_alt_vars_22 <= 0
 cc_alt_vars_20 <= 0
 cc_alt_vars_9 <= 0
 cc_alt_vars_8 <= 0
 cc_alt_vars_7 <= 0
 cc_alt_vars_15 <= 0
 cc_alt_vars_19 <= 0
 cc_alt_vars_2 <= 0
 cc_alt_vars_0 <= 0
 cc_alt_vars_3 <= 0
 cc_alt_vars_13 <= 0
 cc_alt_vars_14 <= 0
 cc_alt_vars_16 <= 0
 cc_alt_vars_21 <= 0
 cc_alt_vars_11 <= 0
 cc_alt_vars_5 <= 0
Scenario 892
Bounds
 cc_alt_vars_1 <= 0
 cc_alt_vars_22 <= 0
 cc_alt_vars_20 <= 0
 cc_alt_vars_9 <= 0
 cc_alt_vars_8 <= 0
 cc_alt_vars_7 <= 0
 cc_alt_vars_15 <= 0
 cc_alt_vars_19 <= 0
 cc_alt_vars_0 <= 0
 cc_alt_vars_3 <= 0
 cc_alt_vars_13 <= 0
 cc_alt_vars_14 <= 0
 cc_alt_vars_16 <= 0
 cc_alt_vars_21 <= 0
 cc_alt_vars_11 <= 0
 cc_alt_vars_5 <= 0
Scenario 893
Bounds
 cc_alt_vars_1 <= 0
 cc_alt_vars_22 <= 0
 cc_alt_vars_20 <= 0
 cc_alt_vars_9 <= 0
 cc_alt_vars_8 <= 0
 cc_alt_vars_7 <= 0
 cc_alt_vars_15 <= 0
 cc_alt_vars_19 <= 0
 cc_alt_vars_2 <= 0
 cc_alt_vars_3 <= 0
 cc_alt_vars_13 <= 0
 cc_alt_vars_14 <= 0
 cc_alt_vars_16 <= 0
 cc_alt_vars_21 <= 0
 cc_alt_vars_11 <= 0
 cc_alt_vars_4 <= 0
Scenario 894
Bounds
 cc_alt_vars_22 <= 0
 cc_alt_vars_20 <= 0
 cc_alt_vars_9 <= 0
 cc_alt_vars_8 <= 0
 cc_alt_vars_7 <= 0
 cc_alt_vars_15 <= 0
 cc_alt_vars_19 <= 0
 cc_alt_vars_2 <= 0
 cc_alt_vars_0 <= 0
 cc_alt_vars_3 <= 0
 cc_alt_vars_13 <= 0
 cc_alt_vars_14 <= 0
 cc_alt_vars_16 <= 0
 cc_alt_vars_21 <= 0
 cc_alt_vars_11 <= 0
 cc_alt_vars_4 <= 0
Scenario 895
Bounds
 cc_alt_vars_1 <= 0
 cc_alt_vars_22 <= 0
 cc_alt_vars_20 <= 0
 cc_alt_vars_9 <= 0
 cc_alt_vars_8 <= 0
 cc_alt_vars_7 <= 0
 cc_alt_vars_15 <= 0
 cc_alt_vars_19 <= 0
 cc_alt_vars_0 <= 0
 cc_alt_vars_3 <= 0
 cc_alt_vars_13 <= 0
 cc_alt_vars_14 <= 0
 cc_alt_vars_16 <= 0
 cc_alt_vars_21 <= 0
 cc_alt_vars_11 <= 0
 cc_alt_vars_4 <= 0
Scenario 896
Bounds
 cc_alt_vars_1 <= 0
 cc_alt_vars_22 <= 0
 cc_alt_vars_20 <= 0
 cc_alt_vars_9 <= 0
 cc_alt_vars_8 <= 0
 cc_alt_vars_15 <= 0
 cc_alt_vars_19 <= 0
 cc_alt_vars_2 <= 0
 cc_alt_vars_6 <= 0
 cc_alt_vars_13 <= 0
 cc_alt_vars_14 <= 0
 cc_alt_vars_16 <= 0
 cc_alt_vars_21 <= 0
 cc_alt_vars_11 <= 0
 cc_alt_vars_4 <= 0
 cc_alt_vars_5 <= 0
Scenario 897
Bounds
 cc_alt_vars_22 <= 0
 cc_alt_vars_20 <= 0
 cc_alt_vars_9 <= 0
 cc_alt_vars_8 <= 0
 cc_alt_vars_15 <= 0
 cc_alt_vars_19 <= 0
 cc_alt_vars_2 <= 0
 cc_alt_vars_0 <= 0
 cc_alt_vars_6 <= 0
 cc_alt_vars_13 <= 0
 cc_alt_vars_14 <= 0
 cc_alt_vars_16 <= 0
 cc_alt_vars_21 <= 0
 cc_alt_vars_11 <= 0
 cc_alt_vars_4 <= 0
 cc_alt_vars_5 <= 0
Scenario 898
Bounds
 cc_alt_vars_1 <= 0
 cc_alt_vars_22 <= 0
 cc_alt_vars_20 <= 0
 cc_alt_vars_9 <= 0
 cc_alt_vars_8 <= 0
 cc_alt_vars_15 <= 0
 cc_alt_vars_19 <= 0
 cc_alt_vars_0 <= 0
 cc_alt_vars_6 <= 0
 cc_alt_vars_13 <= 0
 cc_alt_vars_14 <= 0
 cc_alt_vars_16 <= 0
 cc_alt_vars_21 <= 0
 cc_alt_vars_11 <= 0
 cc_alt_vars_4 <= 0
 cc_alt_vars_5 <= 0
Scenario 899
Bounds
 cc_alt_vars_1 <= 0
 cc_alt_vars_22 <= 0
 cc_alt_vars_20 <= 0
 cc_alt_vars_9 <= 0
 cc_alt_vars_8 <= 0
 cc_alt_vars_15 <= 0
 cc_alt_vars_19 <= 0
 cc_alt_vars_2 <= 0
 cc_alt_vars_6 <= 0
 cc_alt_vars_3 <= 0
 cc_alt_vars_13 <= 0
 cc_alt_vars_14 <= 0
 cc_alt_vars_16 <= 0
 cc_alt_vars_21 <= 0
 cc_alt_vars_11 <= 0
 cc_alt_vars_5 <= 0
Scenario 900
Bounds
 cc_alt_vars_22 <= 0
 cc_alt_vars_20 <= 0
 cc_alt_vars_9 <= 0
 cc_alt_vars_8 <= 0
 cc_alt_vars_15 <= 0
 cc_alt_vars_19 <= 0
 cc_alt_vars_2 <= 0
 cc_alt_vars_0 <= 0
 cc_alt_vars_6 <= 0
 cc_alt_vars_3 <= 0
 cc_alt_vars_13 <= 0
 cc_alt_vars_14 <= 0
 cc_alt_vars_16 <= 0
 cc_alt_vars_21 <= 0
 cc_alt_vars_11 <= 0
 cc_alt_vars_5 <= 0
Scenario 901
Bounds
 cc_alt_vars_1 <= 0
 cc_alt_vars_22 <= 0
 cc_alt_vars_20 <= 0
 cc_alt_vars_9 <= 0
 cc_alt_vars_8 <= 0
 cc_alt_vars_15 <= 0
 cc_alt_vars_19 <= 0
 cc_alt_vars_0 <= 0
 cc_alt_vars_6 <= 0
 cc_alt_vars_3 <= 0
 cc_alt_vars_13 <= 0
 cc_alt_vars_14 <= 0
 cc_alt_vars_16 <= 0
 cc_alt_vars_21 <= 0
 cc_alt_vars_11 <= 0
 cc_alt_vars_5 <= 0
Scenario 902
Bounds
 cc_alt_vars_1 <= 0
 cc_alt_vars_22 <= 0
 cc_alt_vars_20 <= 0
 cc_alt_vars_9 <= 0
 cc_alt_vars_8 <= 0
 cc_alt_vars_15 <= 0
 cc_alt_vars_19 <= 0
 cc_alt_vars_2 <= 0
 cc_alt_vars_6 <= 0
 cc_alt_vars_3 <= 0
 cc_alt_vars_13 <= 0
 cc_alt_vars_14 <= 0
 cc_alt_vars_16 <= 0
 cc_alt_vars_21 <= 0
 cc_alt_vars_11 <= 0
 cc_alt_vars_4 <= 0
Scenario 903
Bounds
 cc_alt_vars_22 <= 0
 cc_alt_vars_20 <= 0
 cc_alt_vars_9 <= 0
 cc_alt_vars_8 <= 0
 cc_alt_vars_15 <= 0
 cc_alt_vars_19 <= 0
 cc_alt_vars_2 <= 0
 cc_alt_vars_0 <= 0
 cc_alt_vars_6 <= 0
 cc_alt_vars_3 <= 0
 cc_alt_vars_13 <= 0
 cc_alt_vars_14 <= 0
 cc_alt_vars_16 <= 0
 cc_alt_vars_21 <= 0
 cc_alt_vars_11 <= 0
 cc_alt_vars_4 <= 0
Scenario 904
Bounds
 cc_alt_vars_1 <= 0
 cc_alt_vars_22 <= 0
 cc_alt_vars_20 <= 0
 cc_alt_vars_9 <= 0
 cc_alt_vars_8 <= 0
 cc_alt_vars_15 <= 0
 cc_alt_vars_19 <= 0
 cc_alt_vars_0 <= 0
 cc_alt_vars_6 <= 0
 cc_alt_vars_3 <= 0
 cc_alt_vars_13 <= 0
 cc_alt_vars_14 <= 0
 cc_alt_vars_16 <= 0
 cc_alt_vars_21 <= 0
 cc_alt_vars_11 <= 0
 cc_alt_vars_4 <= 0
Scenario 905
Bounds
 cc_alt_vars_1 <= 0
 cc_alt_vars_22 <= 0
 cc_alt_vars_20 <= 0
 cc_alt_vars_9 <= 0
 cc_alt_vars_7 <= 0
 cc_alt_vars_15 <= 0
 cc_alt_vars_19 <= 0
 cc_alt_vars_2 <= 0
 cc_alt_vars_6 <= 0
 cc_alt_vars_13 <= 0
 cc_alt_vars_14 <= 0
 cc_alt_vars_16 <= 0
 cc_alt_vars_21 <= 0
 cc_alt_vars_11 <= 0
 cc_alt_vars_4 <= 0
 cc_alt_vars_5 <= 0
Scenario 906
Bounds
 cc_alt_vars_22 <= 0
 cc_alt_vars_20 <= 0
 cc_alt_vars_9 <= 0
 cc_alt_vars_7 <= 0
 cc_alt_vars_15 <= 0
 cc_alt_vars_19 <= 0
 cc_alt_vars_2 <= 0
 cc_alt_vars_0 <= 0
 cc_alt_vars_6 <= 0
 cc_alt_vars_13 <= 0
 cc_alt_vars_14 <= 0
 cc_alt_vars_16 <= 0
 cc_alt_vars_21 <= 0
 cc_alt_vars_11 <= 0
 cc_alt_vars_4 <= 0
 cc_alt_vars_5 <= 0
Scenario 907
Bounds
 cc_alt_vars_1 <= 0
 cc_alt_vars_22 <= 0
 cc_alt_vars_20 <= 0
 cc_alt_vars_9 <= 0
 cc_alt_vars_7 <= 0
 cc_alt_vars_15 <= 0
 cc_alt_vars_19 <= 0
 cc_alt_vars_0 <= 0
 cc_alt_vars_6 <= 0
 cc_alt_vars_13 <= 0
 cc_alt_vars_14 <= 0
 cc_alt_vars_16 <= 0
 cc_alt_vars_21 <= 0
 cc_alt_vars_11 <= 0
 cc_alt_vars_4 <= 0
 cc_alt_vars_5 <= 0
Scenario 908
Bounds
 cc_alt_vars_1 <= 0
 cc_alt_vars_22 <= 0
 cc_alt_vars_20 <= 0
 cc_alt_vars_9 <= 0
 cc_alt_vars_7 <= 0
 cc_alt_vars_15 <= 0
 cc_alt_vars_19 <= 0
 cc_alt_vars_2 <= 0
 cc_alt_vars_6 <= 0
 cc_alt_vars_3 <= 0
 cc_alt_vars_13 <= 0
 cc_alt_vars_14 <= 0
 cc_alt_vars_16 <= 0
 cc_alt_vars_21 <= 0
 cc_alt_vars_11 <= 0
 cc_alt_vars_5 <= 0
Scenario 909
Bounds
 cc_alt_vars_22 <= 0
 cc_alt_vars_20 <= 0
 cc_alt_vars_9 <= 0
 cc_alt_vars_7 <= 0
 cc_alt_vars_15 <= 0
 cc_alt_vars_19 <= 0
 cc_alt_vars_2 <= 0
 cc_alt_vars_0 <= 0
 cc_alt_vars_6 <= 0
 cc_alt_vars_3 <= 0
 cc_alt_vars_13 <= 0
 cc_alt_vars_14 <= 0
 cc_alt_vars_16 <= 0
 cc_alt_vars_21 <= 0
 cc_alt_vars_11 <= 0
 cc_alt_vars_5 <= 0
Scenario 910
Bounds
 cc_alt_vars_1 <= 0
 cc_alt_vars_22 <= 0
 cc_alt_vars_20 <= 0
 cc_alt_vars_9 <= 0
 cc_alt_vars_7 <= 0
 cc_alt_vars_15 <= 0
 cc_alt_vars_19 <= 0
 cc_alt_vars_0 <= 0
 cc_alt_vars_6 <= 0
 cc_alt_vars_3 <= 0
 cc_alt_vars_13 <= 0
 cc_alt_vars_14 <= 0
 cc_alt_vars_16 <= 0
 cc_alt_vars_21 <= 0
 cc_alt_vars_11 <= 0
 cc_alt_vars_5 <= 0
Scenario 911
Bounds
 cc_alt_vars_1 <= 0
 cc_alt_vars_22 <= 0
 cc_alt_vars_20 <= 0
 cc_alt_vars_9 <= 0
 cc_alt_vars_7 <= 0
 cc_alt_vars_15 <= 0
 cc_alt_vars_19 <= 0
 cc_alt_vars_2 <= 0
 cc_alt_vars_6 <= 0
 cc_alt_vars_3 <= 0
 cc_alt_vars_13 <= 0
 cc_alt_vars_14 <= 0
 cc_alt_vars_16 <= 0
 cc_alt_vars_21 <= 0
 cc_alt_vars_11 <= 0
 cc_alt_vars_4 <= 0
Scenario 912
Bounds
 cc_alt_vars_22 <= 0
 cc_alt_vars_20 <= 0
 cc_alt_vars_9 <= 0
 cc_alt_vars_7 <= 0
 cc_alt_vars_15 <= 0
 cc_alt_vars_19 <= 0
 cc_alt_vars_2 <= 0
 cc_alt_vars_0 <= 0
 cc_alt_vars_6 <= 0
 cc_alt_vars_3 <= 0
 cc_alt_vars_13 <= 0
 cc_alt_vars_14 <= 0
 cc_alt_vars_16 <= 0
 cc_alt_vars_21 <= 0
 cc_alt_vars_11 <= 0
 cc_alt_vars_4 <= 0
Scenario 913
Bounds
 cc_alt_vars_1 <= 0
 cc_alt_vars_22 <= 0
 cc_alt_vars_20 <= 0
 cc_alt_vars_9 <= 0
 cc_alt_vars_7 <= 0
 cc_alt_vars_15 <= 0
 cc_alt_vars_19 <= 0
 cc_alt_vars_0 <= 0
 cc_alt_vars_6 <= 0
 cc_alt_vars_3 <= 0
 cc_alt_vars_13 <= 0
 cc_alt_vars_14 <= 0
 cc_alt_vars_16 <= 0
 cc_alt_vars_21 <= 0
 cc_alt_vars_11 <= 0
 cc_alt_vars_4 <= 0
Scenario 914
Bounds
 cc_alt_vars_1 <= 0
 cc_alt_vars_22 <= 0
 cc_alt_vars_20 <= 0
 cc_alt_vars_9 <= 0
 cc_alt_vars_8 <= 0
 cc_alt_vars_7 <= 0
 cc_alt_vars_15 <= 0
 cc_alt_vars_19 <= 0
 cc_alt_vars_2 <= 0
 cc_alt_vars_13 <= 0
 cc_alt_vars_14 <= 0
 cc_alt_vars_16 <= 0
 cc_alt_vars_21 <= 0
 cc_alt_vars_4 <= 0
 cc_alt_vars_5 <= 0
 cc_alt_vars_10 <= 0
Scenario 915
Bounds
 cc_alt_vars_22 <= 0
 cc_alt_vars_20 <= 0
 cc_alt_vars_9 <= 0
 cc_alt_vars_8 <= 0
 cc_alt_vars_7 <= 0
 cc_alt_vars_15 <= 0
 cc_alt_vars_19 <= 0
 cc_alt_vars_2 <= 0
 cc_alt_vars_0 <= 0
 cc_alt_vars_13 <= 0
 cc_alt_vars_14 <= 0
 cc_alt_vars_16 <= 0
 cc_alt_vars_21 <= 0
 cc_alt_vars_4 <= 0
 cc_alt_vars_5 <= 0
 cc_alt_vars_10 <= 0
Scenario 916
Bounds
 cc_alt_vars_1 <= 0
 cc_alt_vars_22 <= 0
 cc_alt_vars_20 <= 0
 cc_alt_vars_9 <= 0
 cc_alt_vars_8 <= 0
 cc_alt_vars_7 <= 0
 cc_alt_vars_15 <= 0
 cc_alt_vars_19 <= 0
 cc_alt_vars_0 <= 0
 cc_alt_vars_13 <= 0
 cc_alt_vars_14 <= 0
 cc_alt_vars_16 <= 0
 cc_alt_vars_21 <= 0
 cc_alt_vars_4 <= 0
 cc_alt_vars_5 <= 0
 cc_alt_vars_10 <= 0
Scenario 917
Bounds
 cc_alt_vars_1 <= 0
 cc_alt_vars_22 <= 0
 cc_alt_vars_20 <= 0
 cc_alt_vars_9 <= 0
 cc_alt_vars_8 <= 0
 cc_alt_vars_7 <= 0
 cc_alt_vars_15 <= 0
 cc_alt_vars_19 <= 0
 cc_alt_vars_2 <= 0
 cc_alt_vars_3 <= 0
 cc_alt_vars_13 <= 0
 cc_alt_vars_14 <= 0
 cc_alt_vars_16 <= 0
 cc_alt_vars_21 <= 0
 cc_alt_vars_5 <= 0
 cc_alt_vars_10 <= 0
Scenario 918
Bounds
 cc_alt_vars_22 <= 0
 cc_alt_vars_20 <= 0
 cc_alt_vars_9 <= 0
 cc_alt_vars_8 <= 0
 cc_alt_vars_7 <= 0
 cc_alt_vars_15 <= 0
 cc_alt_vars_19 <= 0
 cc_alt_vars_2 <= 0
 cc_alt_vars_0 <= 0
 cc_alt_vars_3 <= 0
 cc_alt_vars_13 <= 0
 cc_alt_vars_14 <= 0
 cc_alt_vars_16 <= 0
 cc_alt_vars_21 <= 0
 cc_alt_vars_5 <= 0
 cc_alt_vars_10 <= 0
Scenario 919
Bounds
 cc_alt_vars_1 <= 0
 cc_alt_vars_22 <= 0
 cc_alt_vars_20 <= 0
 cc_alt_vars_9 <= 0
 cc_alt_vars_8 <= 0
 cc_alt_vars_7 <= 0
 cc_alt_vars_15 <= 0
 cc_alt_vars_19 <= 0
 cc_alt_vars_0 <= 0
 cc_alt_vars_3 <= 0
 cc_alt_vars_13 <= 0
 cc_alt_vars_14 <= 0
 cc_alt_vars_16 <= 0
 cc_alt_vars_21 <= 0
 cc_alt_vars_5 <= 0
 cc_alt_vars_10 <= 0
Scenario 920
Bounds
 cc_alt_vars_1 <= 0
 cc_alt_vars_22 <= 0
 cc_alt_vars_20 <= 0
 cc_alt_vars_9 <= 0
 cc_alt_vars_8 <= 0
 cc_alt_vars_7 <= 0
 cc_alt_vars_15 <= 0
 cc_alt_vars_19 <= 0
 cc_alt_vars_2 <= 0
 cc_alt_vars_3 <= 0
 cc_alt_vars_13 <= 0
 cc_alt_vars_14 <= 0
 cc_alt_vars_16 <= 0
 cc_alt_vars_21 <= 0
 cc_alt_vars_4 <= 0
 cc_alt_vars_10 <= 0
Scenario 921
Bounds
 cc_alt_vars_22 <= 0
 cc_alt_vars_20 <= 0
 cc_alt_vars_9 <= 0
 cc_alt_vars_8 <= 0
 cc_alt_vars_7 <= 0
 cc_alt_vars_15 <= 0
 cc_alt_vars_19 <= 0
 cc_alt_vars_2 <= 0
 cc_alt_vars_0 <= 0
 cc_alt_vars_3 <= 0
 cc_alt_vars_13 <= 0
 cc_alt_vars_14 <= 0
 cc_alt_vars_16 <= 0
 cc_alt_vars_21 <= 0
 cc_alt_vars_4 <= 0
 cc_alt_vars_10 <= 0
Scenario 922
Bounds
 cc_alt_vars_1 <= 0
 cc_alt_vars_22 <= 0
 cc_alt_vars_20 <= 0
 cc_alt_vars_9 <= 0
 cc_alt_vars_8 <= 0
 cc_alt_vars_7 <= 0
 cc_alt_vars_15 <= 0
 cc_alt_vars_19 <= 0
 cc_alt_vars_0 <= 0
 cc_alt_vars_3 <= 0
 cc_alt_vars_13 <= 0
 cc_alt_vars_14 <= 0
 cc_alt_vars_16 <= 0
 cc_alt_vars_21 <= 0
 cc_alt_vars_4 <= 0
 cc_alt_vars_10 <= 0
Scenario 923
Bounds
 cc_alt_vars_1 <= 0
 cc_alt_vars_22 <= 0
 cc_alt_vars_20 <= 0
 cc_alt_vars_9 <= 0
 cc_alt_vars_8 <= 0
 cc_alt_vars_15 <= 0
 cc_alt_vars_19 <= 0
 cc_alt_vars_2 <= 0
 cc_alt_vars_6 <= 0
 cc_alt_vars_13 <= 0
 cc_alt_vars_14 <= 0
 cc_alt_vars_16 <= 0
 cc_alt_vars_21 <= 0
 cc_alt_vars_4 <= 0
 cc_alt_vars_5 <= 0
 cc_alt_vars_10 <= 0
Scenario 924
Bounds
 cc_alt_vars_22 <= 0
 cc_alt_vars_20 <= 0
 cc_alt_vars_9 <= 0
 cc_alt_vars_8 <= 0
 cc_alt_vars_15 <= 0
 cc_alt_vars_19 <= 0
 cc_alt_vars_2 <= 0
 cc_alt_vars_0 <= 0
 cc_alt_vars_6 <= 0
 cc_alt_vars_13 <= 0
 cc_alt_vars_14 <= 0
 cc_alt_vars_16 <= 0
 cc_alt_vars_21 <= 0
 cc_alt_vars_4 <= 0
 cc_alt_vars_5 <= 0
 cc_alt_vars_10 <= 0
Scenario 925
Bounds
 cc_alt_vars_1 <= 0
 cc_alt_vars_22 <= 0
 cc_alt_vars_20 <= 0
 cc_alt_vars_9 <= 0
 cc_alt_vars_8 <= 0
 cc_alt_vars_15 <= 0
 cc_alt_vars_19 <= 0
 cc_alt_vars_0 <= 0
 cc_alt_vars_6 <= 0
 cc_alt_vars_13 <= 0
 cc_alt_vars_14 <= 0
 cc_alt_vars_16 <= 0
 cc_alt_vars_21 <= 0
 cc_alt_vars_4 <= 0
 cc_alt_vars_5 <= 0
 cc_alt_vars_10 <= 0
Scenario 926
Bounds
 cc_alt_vars_1 <= 0
 cc_alt_vars_22 <= 0
 cc_alt_vars_20 <= 0
 cc_alt_vars_9 <= 0
 cc_alt_vars_8 <= 0
 cc_alt_vars_15 <= 0
 cc_alt_vars_19 <= 0
 cc_alt_vars_2 <= 0
 cc_alt_vars_6 <= 0
 cc_alt_vars_3 <= 0
 cc_alt_vars_13 <= 0
 cc_alt_vars_14 <= 0
 cc_alt_vars_16 <= 0
 cc_alt_vars_21 <= 0
 cc_alt_vars_5 <= 0
 cc_alt_vars_10 <= 0
Scenario 927
Bounds
 cc_alt_vars_22 <= 0
 cc_alt_vars_20 <= 0
 cc_alt_vars_9 <= 0
 cc_alt_vars_8 <= 0
 cc_alt_vars_15 <= 0
 cc_alt_vars_19 <= 0
 cc_alt_vars_2 <= 0
 cc_alt_vars_0 <= 0
 cc_alt_vars_6 <= 0
 cc_alt_vars_3 <= 0
 cc_alt_vars_13 <= 0
 cc_alt_vars_14 <= 0
 cc_alt_vars_16 <= 0
 cc_alt_vars_21 <= 0
 cc_alt_vars_5 <= 0
 cc_alt_vars_10 <= 0
Scenario 928
Bounds
 cc_alt_vars_1 <= 0
 cc_alt_vars_22 <= 0
 cc_alt_vars_20 <= 0
 cc_alt_vars_9 <= 0
 cc_alt_vars_8 <= 0
 cc_alt_vars_15 <= 0
 cc_alt_vars_19 <= 0
 cc_alt_vars_0 <= 0
 cc_alt_vars_6 <= 0
 cc_alt_vars_3 <= 0
 cc_alt_vars_13 <= 0
 cc_alt_vars_14 <= 0
 cc_alt_vars_16 <= 0
 cc_alt_vars_21 <= 0
 cc_alt_vars_5 <= 0
 cc_alt_vars_10 <= 0
Scenario 929
Bounds
 cc_alt_vars_1 <= 0
 cc_alt_vars_22 <= 0
 cc_alt_vars_20 <= 0
 cc_alt_vars_9 <= 0
 cc_alt_vars_8 <= 0
 cc_alt_vars_15 <= 0
 cc_alt_vars_19 <= 0
 cc_alt_vars_2 <= 0
 cc_alt_vars_6 <= 0
 cc_alt_vars_3 <= 0
 cc_alt_vars_13 <= 0
 cc_alt_vars_14 <= 0
 cc_alt_vars_16 <= 0
 cc_alt_vars_21 <= 0
 cc_alt_vars_4 <= 0
 cc_alt_vars_10 <= 0
Scenario 930
Bounds
 cc_alt_vars_22 <= 0
 cc_alt_vars_20 <= 0
 cc_alt_vars_9 <= 0
 cc_alt_vars_8 <= 0
 cc_alt_vars_15 <= 0
 cc_alt_vars_19 <= 0
 cc_alt_vars_2 <= 0
 cc_alt_vars_0 <= 0
 cc_alt_vars_6 <= 0
 cc_alt_vars_3 <= 0
 cc_alt_vars_13 <= 0
 cc_alt_vars_14 <= 0
 cc_alt_vars_16 <= 0
 cc_alt_vars_21 <= 0
 cc_alt_vars_4 <= 0
 cc_alt_vars_10 <= 0
Scenario 931
Bounds
 cc_alt_vars_1 <= 0
 cc_alt_vars_22 <= 0
 cc_alt_vars_20 <= 0
 cc_alt_vars_9 <= 0
 cc_alt_vars_8 <= 0
 cc_alt_vars_15 <= 0
 cc_alt_vars_19 <= 0
 cc_alt_vars_0 <= 0
 cc_alt_vars_6 <= 0
 cc_alt_vars_3 <= 0
 cc_alt_vars_13 <= 0
 cc_alt_vars_14 <= 0
 cc_alt_vars_16 <= 0
 cc_alt_vars_21 <= 0
 cc_alt_vars_4 <= 0
 cc_alt_vars_10 <= 0
Scenario 932
Bounds
 cc_alt_vars_1 <= 0
 cc_alt_vars_22 <= 0
 cc_alt_vars_20 <= 0
 cc_alt_vars_9 <= 0
 cc_alt_vars_7 <= 0
 cc_alt_vars_15 <= 0
 cc_alt_vars_19 <= 0
 cc_alt_vars_2 <= 0
 cc_alt_vars_6 <= 0
 cc_alt_vars_13 <= 0
 cc_alt_vars_14 <= 0
 cc_alt_vars_16 <= 0
 cc_alt_vars_21 <= 0
 cc_alt_vars_4 <= 0
 cc_alt_vars_5 <= 0
 cc_alt_vars_10 <= 0
Scenario 933
Bounds
 cc_alt_vars_22 <= 0
 cc_alt_vars_20 <= 0
 cc_alt_vars_9 <= 0
 cc_alt_vars_7 <= 0
 cc_alt_vars_15 <= 0
 cc_alt_vars_19 <= 0
 cc_alt_vars_2 <= 0
 cc_alt_vars_0 <= 0
 cc_alt_vars_6 <= 0
 cc_alt_vars_13 <= 0
 cc_alt_vars_14 <= 0
 cc_alt_vars_16 <= 0
 cc_alt_vars_21 <= 0
 cc_alt_vars_4 <= 0
 cc_alt_vars_5 <= 0
 cc_alt_vars_10 <= 0
Scenario 934
Bounds
 cc_alt_vars_1 <= 0
 cc_alt_vars_22 <= 0
 cc_alt_vars_20 <= 0
 cc_alt_vars_9 <= 0
 cc_alt_vars_7 <= 0
 cc_alt_vars_15 <= 0
 cc_alt_vars_19 <= 0
 cc_alt_vars_0 <= 0
 cc_alt_vars_6 <= 0
 cc_alt_vars_13 <= 0
 cc_alt_vars_14 <= 0
 cc_alt_vars_16 <= 0
 cc_alt_vars_21 <= 0
 cc_alt_vars_4 <= 0
 cc_alt_vars_5 <= 0
 cc_alt_vars_10 <= 0
Scenario 935
Bounds
 cc_alt_vars_1 <= 0
 cc_alt_vars_22 <= 0
 cc_alt_vars_20 <= 0
 cc_alt_vars_9 <= 0
 cc_alt_vars_7 <= 0
 cc_alt_vars_15 <= 0
 cc_alt_vars_19 <= 0
 cc_alt_vars_2 <= 0
 cc_alt_vars_6 <= 0
 cc_alt_vars_3 <= 0
 cc_alt_vars_13 <= 0
 cc_alt_vars_14 <= 0
 cc_alt_vars_16 <= 0
 cc_alt_vars_21 <= 0
 cc_alt_vars_5 <= 0
 cc_alt_vars_10 <= 0
Scenario 936
Bounds
 cc_alt_vars_22 <= 0
 cc_alt_vars_20 <= 0
 cc_alt_vars_9 <= 0
 cc_alt_vars_7 <= 0
 cc_alt_vars_15 <= 0
 cc_alt_vars_19 <= 0
 cc_alt_vars_2 <= 0
 cc_alt_vars_0 <= 0
 cc_alt_vars_6 <= 0
 cc_alt_vars_3 <= 0
 cc_alt_vars_13 <= 0
 cc_alt_vars_14 <= 0
 cc_alt_vars_16 <= 0
 cc_alt_vars_21 <= 0
 cc_alt_vars_5 <= 0
 cc_alt_vars_10 <= 0
Scenario 937
Bounds
 cc_alt_vars_1 <= 0
 cc_alt_vars_22 <= 0
 cc_alt_vars_20 <= 0
 cc_alt_vars_9 <= 0
 cc_alt_vars_7 <= 0
 cc_alt_vars_15 <= 0
 cc_alt_vars_19 <= 0
 cc_alt_vars_0 <= 0
 cc_alt_vars_6 <= 0
 cc_alt_vars_3 <= 0
 cc_alt_vars_13 <= 0
 cc_alt_vars_14 <= 0
 cc_alt_vars_16 <= 0
 cc_alt_vars_21 <= 0
 cc_alt_vars_5 <= 0
 cc_alt_vars_10 <= 0
Scenario 938
Bounds
 cc_alt_vars_1 <= 0
 cc_alt_vars_22 <= 0
 cc_alt_vars_20 <= 0
 cc_alt_vars_9 <= 0
 cc_alt_vars_7 <= 0
 cc_alt_vars_15 <= 0
 cc_alt_vars_19 <= 0
 cc_alt_vars_2 <= 0
 cc_alt_vars_6 <= 0
 cc_alt_vars_3 <= 0
 cc_alt_vars_13 <= 0
 cc_alt_vars_14 <= 0
 cc_alt_vars_16 <= 0
 cc_alt_vars_21 <= 0
 cc_alt_vars_4 <= 0
 cc_alt_vars_10 <= 0
Scenario 939
Bounds
 cc_alt_vars_22 <= 0
 cc_alt_vars_20 <= 0
 cc_alt_vars_9 <= 0
 cc_alt_vars_7 <= 0
 cc_alt_vars_15 <= 0
 cc_alt_vars_19 <= 0
 cc_alt_vars_2 <= 0
 cc_alt_vars_0 <= 0
 cc_alt_vars_6 <= 0
 cc_alt_vars_3 <= 0
 cc_alt_vars_13 <= 0
 cc_alt_vars_14 <= 0
 cc_alt_vars_16 <= 0
 cc_alt_vars_21 <= 0
 cc_alt_vars_4 <= 0
 cc_alt_vars_10 <= 0
Scenario 940
Bounds
 cc_alt_vars_1 <= 0
 cc_alt_vars_22 <= 0
 cc_alt_vars_20 <= 0
 cc_alt_vars_9 <= 0
 cc_alt_vars_7 <= 0
 cc_alt_vars_15 <= 0
 cc_alt_vars_19 <= 0
 cc_alt_vars_0 <= 0
 cc_alt_vars_6 <= 0
 cc_alt_vars_3 <= 0
 cc_alt_vars_13 <= 0
 cc_alt_vars_14 <= 0
 cc_alt_vars_16 <= 0
 cc_alt_vars_21 <= 0
 cc_alt_vars_4 <= 0
 cc_alt_vars_10 <= 0
Scenario 941
Bounds
 cc_alt_vars_1 <= 0
 cc_alt_vars_22 <= 0
 cc_alt_vars_20 <= 0
 cc_alt_vars_8 <= 0
 cc_alt_vars_7 <= 0
 cc_alt_vars_15 <= 0
 cc_alt_vars_19 <= 0
 cc_alt_vars_2 <= 0
 cc_alt_vars_14 <= 0
 cc_alt_vars_16 <= 0
 cc_alt_vars_21 <= 0
 cc_alt_vars_11 <= 0
 cc_alt_vars_4 <= 0
 cc_alt_vars_12 <= 0
 cc_alt_vars_5 <= 0
 cc_alt_vars_10 <= 0
Scenario 942
Bounds
 cc_alt_vars_22 <= 0
 cc_alt_vars_20 <= 0
 cc_alt_vars_8 <= 0
 cc_alt_vars_7 <= 0
 cc_alt_vars_15 <= 0
 cc_alt_vars_19 <= 0
 cc_alt_vars_2 <= 0
 cc_alt_vars_0 <= 0
 cc_alt_vars_14 <= 0
 cc_alt_vars_16 <= 0
 cc_alt_vars_21 <= 0
 cc_alt_vars_11 <= 0
 cc_alt_vars_4 <= 0
 cc_alt_vars_12 <= 0
 cc_alt_vars_5 <= 0
 cc_alt_vars_10 <= 0
Scenario 943
Bounds
 cc_alt_vars_1 <= 0
 cc_alt_vars_22 <= 0
 cc_alt_vars_20 <= 0
 cc_alt_vars_8 <= 0
 cc_alt_vars_7 <= 0
 cc_alt_vars_15 <= 0
 cc_alt_vars_19 <= 0
 cc_alt_vars_0 <= 0
 cc_alt_vars_14 <= 0
 cc_alt_vars_16 <= 0
 cc_alt_vars_21 <= 0
 cc_alt_vars_11 <= 0
 cc_alt_vars_4 <= 0
 cc_alt_vars_12 <= 0
 cc_alt_vars_5 <= 0
 cc_alt_vars_10 <= 0
Scenario 944
Bounds
 cc_alt_vars_1 <= 0
 cc_alt_vars_22 <= 0
 cc_alt_vars_20 <= 0
 cc_alt_vars_8 <= 0
 cc_alt_vars_7 <= 0
 cc_alt_vars_15 <= 0
 cc_alt_vars_19 <= 0
 cc_alt_vars_2 <= 0
 cc_alt_vars_3 <= 0
 cc_alt_vars_14 <= 0
 cc_alt_vars_16 <= 0
 cc_alt_vars_21 <= 0
 cc_alt_vars_11 <= 0
 cc_alt_vars_12 <= 0
 cc_alt_vars_5 <= 0
 cc_alt_vars_10 <= 0
Scenario 945
Bounds
 cc_alt_vars_22 <= 0
 cc_alt_vars_20 <= 0
 cc_alt_vars_8 <= 0
 cc_alt_vars_7 <= 0
 cc_alt_vars_15 <= 0
 cc_alt_vars_19 <= 0
 cc_alt_vars_2 <= 0
 cc_alt_vars_0 <= 0
 cc_alt_vars_3 <= 0
 cc_alt_vars_14 <= 0
 cc_alt_vars_16 <= 0
 cc_alt_vars_21 <= 0
 cc_alt_vars_11 <= 0
 cc_alt_vars_12 <= 0
 cc_alt_vars_5 <= 0
 cc_alt_vars_10 <= 0
Scenario 946
Bounds
 cc_alt_vars_1 <= 0
 cc_alt_vars_22 <= 0
 cc_alt_vars_20 <= 0
 cc_alt_vars_8 <= 0
 cc_alt_vars_7 <= 0
 cc_alt_vars_15 <= 0
 cc_alt_vars_19 <= 0
 cc_alt_vars_0 <= 0
 cc_alt_vars_3 <= 0
 cc_alt_vars_14 <= 0
 cc_alt_vars_16 <= 0
 cc_alt_vars_21 <= 0
 cc_alt_vars_11 <= 0
 cc_alt_vars_12 <= 0
 cc_alt_vars_5 <= 0
 cc_alt_vars_10 <= 0
Scenario 947
Bounds
 cc_alt_vars_1 <= 0
 cc_alt_vars_22 <= 0
 cc_alt_vars_20 <= 0
 cc_alt_vars_8 <= 0
 cc_alt_vars_7 <= 0
 cc_alt_vars_15 <= 0
 cc_alt_vars_19 <= 0
 cc_alt_vars_2 <= 0
 cc_alt_vars_3 <= 0
 cc_alt_vars_14 <= 0
 cc_alt_vars_16 <= 0
 cc_alt_vars_21 <= 0
 cc_alt_vars_11 <= 0
 cc_alt_vars_4 <= 0
 cc_alt_vars_12 <= 0
 cc_alt_vars_10 <= 0
Scenario 948
Bounds
 cc_alt_vars_22 <= 0
 cc_alt_vars_20 <= 0
 cc_alt_vars_8 <= 0
 cc_alt_vars_7 <= 0
 cc_alt_vars_15 <= 0
 cc_alt_vars_19 <= 0
 cc_alt_vars_2 <= 0
 cc_alt_vars_0 <= 0
 cc_alt_vars_3 <= 0
 cc_alt_vars_14 <= 0
 cc_alt_vars_16 <= 0
 cc_alt_vars_21 <= 0
 cc_alt_vars_11 <= 0
 cc_alt_vars_4 <= 0
 cc_alt_vars_12 <= 0
 cc_alt_vars_10 <= 0
Scenario 949
Bounds
 cc_alt_vars_1 <= 0
 cc_alt_vars_22 <= 0
 cc_alt_vars_20 <= 0
 cc_alt_vars_8 <= 0
 cc_alt_vars_7 <= 0
 cc_alt_vars_15 <= 0
 cc_alt_vars_19 <= 0
 cc_alt_vars_0 <= 0
 cc_alt_vars_3 <= 0
 cc_alt_vars_14 <= 0
 cc_alt_vars_16 <= 0
 cc_alt_vars_21 <= 0
 cc_alt_vars_11 <= 0
 cc_alt_vars_4 <= 0
 cc_alt_vars_12 <= 0
 cc_alt_vars_10 <= 0
Scenario 950
Bounds
 cc_alt_vars_1 <= 0
 cc_alt_vars_22 <= 0
 cc_alt_vars_20 <= 0
 cc_alt_vars_8 <= 0
 cc_alt_vars_15 <= 0
 cc_alt_vars_19 <= 0
 cc_alt_vars_2 <= 0
 cc_alt_vars_6 <= 0
 cc_alt_vars_14 <= 0
 cc_alt_vars_16 <= 0
 cc_alt_vars_21 <= 0
 cc_alt_vars_11 <= 0
 cc_alt_vars_4 <= 0
 cc_alt_vars_12 <= 0
 cc_alt_vars_5 <= 0
 cc_alt_vars_10 <= 0
Scenario 951
Bounds
 cc_alt_vars_22 <= 0
 cc_alt_vars_20 <= 0
 cc_alt_vars_8 <= 0
 cc_alt_vars_15 <= 0
 cc_alt_vars_19 <= 0
 cc_alt_vars_2 <= 0
 cc_alt_vars_0 <= 0
 cc_alt_vars_6 <= 0
 cc_alt_vars_14 <= 0
 cc_alt_vars_16 <= 0
 cc_alt_vars_21 <= 0
 cc_alt_vars_11 <= 0
 cc_alt_vars_4 <= 0
 cc_alt_vars_12 <= 0
 cc_alt_vars_5 <= 0
 cc_alt_vars_10 <= 0
Scenario 952
Bounds
 cc_alt_vars_1 <= 0
 cc_alt_vars_22 <= 0
 cc_alt_vars_20 <= 0
 cc_alt_vars_8 <= 0
 cc_alt_vars_15 <= 0
 cc_alt_vars_19 <= 0
 cc_alt_vars_0 <= 0
 cc_alt_vars_6 <= 0
 cc_alt_vars_14 <= 0
 cc_alt_vars_16 <= 0
 cc_alt_vars_21 <= 0
 cc_alt_vars_11 <= 0
 cc_alt_vars_4 <= 0
 cc_alt_vars_12 <= 0
 cc_alt_vars_5 <= 0
 cc_alt_vars_10 <= 0
Scenario 953
Bounds
 cc_alt_vars_1 <= 0
 cc_alt_vars_22 <= 0
 cc_alt_vars_20 <= 0
 cc_alt_vars_8 <= 0
 cc_alt_vars_15 <= 0
 cc_alt_vars_19 <= 0
 cc_alt_vars_2 <= 0
 cc_alt_vars_6 <= 0
 cc_alt_vars_3 <= 0
 cc_alt_vars_14 <= 0
 cc_alt_vars_16 <= 0
 cc_alt_vars_21 <= 0
 cc_alt_vars_11 <= 0
 cc_alt_vars_12 <= 0
 cc_alt_vars_5 <= 0
 cc_alt_vars_10 <= 0
Scenario 954
Bounds
 cc_alt_vars_22 <= 0
 cc_alt_vars_20 <= 0
 cc_alt_vars_8 <= 0
 cc_alt_vars_15 <= 0
 cc_alt_vars_19 <= 0
 cc_alt_vars_2 <= 0
 cc_alt_vars_0 <= 0
 cc_alt_vars_6 <= 0
 cc_alt_vars_3 <= 0
 cc_alt_vars_14 <= 0
 cc_alt_vars_16 <= 0
 cc_alt_vars_21 <= 0
 cc_alt_vars_11 <= 0
 cc_alt_vars_12 <= 0
 cc_alt_vars_5 <= 0
 cc_alt_vars_10 <= 0
Scenario 955
Bounds
 cc_alt_vars_1 <= 0
 cc_alt_vars_22 <= 0
 cc_alt_vars_20 <= 0
 cc_alt_vars_8 <= 0
 cc_alt_vars_15 <= 0
 cc_alt_vars_19 <= 0
 cc_alt_vars_0 <= 0
 cc_alt_vars_6 <= 0
 cc_alt_vars_3 <= 0
 cc_alt_vars_14 <= 0
 cc_alt_vars_16 <= 0
 cc_alt_vars_21 <= 0
 cc_alt_vars_11 <= 0
 cc_alt_vars_12 <= 0
 cc_alt_vars_5 <= 0
 cc_alt_vars_10 <= 0
Scenario 956
Bounds
 cc_alt_vars_1 <= 0
 cc_alt_vars_22 <= 0
 cc_alt_vars_20 <= 0
 cc_alt_vars_8 <= 0
 cc_alt_vars_15 <= 0
 cc_alt_vars_19 <= 0
 cc_alt_vars_2 <= 0
 cc_alt_vars_6 <= 0
 cc_alt_vars_3 <= 0
 cc_alt_vars_14 <= 0
 cc_alt_vars_16 <= 0
 cc_alt_vars_21 <= 0
 cc_alt_vars_11 <= 0
 cc_alt_vars_4 <= 0
 cc_alt_vars_12 <= 0
 cc_alt_vars_10 <= 0
Scenario 957
Bounds
 cc_alt_vars_22 <= 0
 cc_alt_vars_20 <= 0
 cc_alt_vars_8 <= 0
 cc_alt_vars_15 <= 0
 cc_alt_vars_19 <= 0
 cc_alt_vars_2 <= 0
 cc_alt_vars_0 <= 0
 cc_alt_vars_6 <= 0
 cc_alt_vars_3 <= 0
 cc_alt_vars_14 <= 0
 cc_alt_vars_16 <= 0
 cc_alt_vars_21 <= 0
 cc_alt_vars_11 <= 0
 cc_alt_vars_4 <= 0
 cc_alt_vars_12 <= 0
 cc_alt_vars_10 <= 0
Scenario 958
Bounds
 cc_alt_vars_1 <= 0
 cc_alt_vars_22 <= 0
 cc_alt_vars_20 <= 0
 cc_alt_vars_8 <= 0
 cc_alt_vars_15 <= 0
 cc_alt_vars_19 <= 0
 cc_alt_vars_0 <= 0
 cc_alt_vars_6 <= 0
 cc_alt_vars_3 <= 0
 cc_alt_vars_14 <= 0
 cc_alt_vars_16 <= 0
 cc_alt_vars_21 <= 0
 cc_alt_vars_11 <= 0
 cc_alt_vars_4 <= 0
 cc_alt_vars_12 <= 0
 cc_alt_vars_10 <= 0
Scenario 959
Bounds
 cc_alt_vars_1 <= 0
 cc_alt_vars_22 <= 0
 cc_alt_vars_20 <= 0
 cc_alt_vars_7 <= 0
 cc_alt_vars_15 <= 0
 cc_alt_vars_19 <= 0
 cc_alt_vars_2 <= 0
 cc_alt_vars_6 <= 0
 cc_alt_vars_14 <= 0
 cc_alt_vars_16 <= 0
 cc_alt_vars_21 <= 0
 cc_alt_vars_11 <= 0
 cc_alt_vars_4 <= 0
 cc_alt_vars_12 <= 0
 cc_alt_vars_5 <= 0
 cc_alt_vars_10 <= 0
Scenario 960
Bounds
 cc_alt_vars_22 <= 0
 cc_alt_vars_20 <= 0
 cc_alt_vars_7 <= 0
 cc_alt_vars_15 <= 0
 cc_alt_vars_19 <= 0
 cc_alt_vars_2 <= 0
 cc_alt_vars_0 <= 0
 cc_alt_vars_6 <= 0
 cc_alt_vars_14 <= 0
 cc_alt_vars_16 <= 0
 cc_alt_vars_21 <= 0
 cc_alt_vars_11 <= 0
 cc_alt_vars_4 <= 0
 cc_alt_vars_12 <= 0
 cc_alt_vars_5 <= 0
 cc_alt_vars_10 <= 0
Scenario 961
Bounds
 cc_alt_vars_1 <= 0
 cc_alt_vars_22 <= 0
 cc_alt_vars_20 <= 0
 cc_alt_vars_7 <= 0
 cc_alt_vars_15 <= 0
 cc_alt_vars_19 <= 0
 cc_alt_vars_0 <= 0
 cc_alt_vars_6 <= 0
 cc_alt_vars_14 <= 0
 cc_alt_vars_16 <= 0
 cc_alt_vars_21 <= 0
 cc_alt_vars_11 <= 0
 cc_alt_vars_4 <= 0
 cc_alt_vars_12 <= 0
 cc_alt_vars_5 <= 0
 cc_alt_vars_10 <= 0
Scenario 962
Bounds
 cc_alt_vars_1 <= 0
 cc_alt_vars_22 <= 0
 cc_alt_vars_20 <= 0
 cc_alt_vars_7 <= 0
 cc_alt_vars_15 <= 0
 cc_alt_vars_19 <= 0
 cc_alt_vars_2 <= 0
 cc_alt_vars_6 <= 0
 cc_alt_vars_3 <= 0
 cc_alt_vars_14 <= 0
 cc_alt_vars_16 <= 0
 cc_alt_vars_21 <= 0
 cc_alt_vars_11 <= 0
 cc_alt_vars_12 <= 0
 cc_alt_vars_5 <= 0
 cc_alt_vars_10 <= 0
Scenario 963
Bounds
 cc_alt_vars_22 <= 0
 cc_alt_vars_20 <= 0
 cc_alt_vars_7 <= 0
 cc_alt_vars_15 <= 0
 cc_alt_vars_19 <= 0
 cc_alt_vars_2 <= 0
 cc_alt_vars_0 <= 0
 cc_alt_vars_6 <= 0
 cc_alt_vars_3 <= 0
 cc_alt_vars_14 <= 0
 cc_alt_vars_16 <= 0
 cc_alt_vars_21 <= 0
 cc_alt_vars_11 <= 0
 cc_alt_vars_12 <= 0
 cc_alt_vars_5 <= 0
 cc_alt_vars_10 <= 0
Scenario 964
Bounds
 cc_alt_vars_1 <= 0
 cc_alt_vars_22 <= 0
 cc_alt_vars_20 <= 0
 cc_alt_vars_7 <= 0
 cc_alt_vars_15 <= 0
 cc_alt_vars_19 <= 0
 cc_alt_vars_0 <= 0
 cc_alt_vars_6 <= 0
 cc_alt_vars_3 <= 0
 cc_alt_vars_14 <= 0
 cc_alt_vars_16 <= 0
 cc_alt_vars_21 <= 0
 cc_alt_vars_11 <= 0
 cc_alt_vars_12 <= 0
 cc_alt_vars_5 <= 0
 cc_alt_vars_10 <= 0
Scenario 965
Bounds
 cc_alt_vars_1 <= 0
 cc_alt_vars_22 <= 0
 cc_alt_vars_20 <= 0
 cc_alt_vars_7 <= 0
 cc_alt_vars_15 <= 0
 cc_alt_vars_19 <= 0
 cc_alt_vars_2 <= 0
 cc_alt_vars_6 <= 0
 cc_alt_vars_3 <= 0
 cc_alt_vars_14 <= 0
 cc_alt_vars_16 <= 0
 cc_alt_vars_21 <= 0
 cc_alt_vars_11 <= 0
 cc_alt_vars_4 <= 0
 cc_alt_vars_12 <= 0
 cc_alt_vars_10 <= 0
Scenario 966
Bounds
 cc_alt_vars_22 <= 0
 cc_alt_vars_20 <= 0
 cc_alt_vars_7 <= 0
 cc_alt_vars_15 <= 0
 cc_alt_vars_19 <= 0
 cc_alt_vars_2 <= 0
 cc_alt_vars_0 <= 0
 cc_alt_vars_6 <= 0
 cc_alt_vars_3 <= 0
 cc_alt_vars_14 <= 0
 cc_alt_vars_16 <= 0
 cc_alt_vars_21 <= 0
 cc_alt_vars_11 <= 0
 cc_alt_vars_4 <= 0
 cc_alt_vars_12 <= 0
 cc_alt_vars_10 <= 0
Scenario 967
Bounds
 cc_alt_vars_1 <= 0
 cc_alt_vars_22 <= 0
 cc_alt_vars_20 <= 0
 cc_alt_vars_7 <= 0
 cc_alt_vars_15 <= 0
 cc_alt_vars_19 <= 0
 cc_alt_vars_0 <= 0
 cc_alt_vars_6 <= 0
 cc_alt_vars_3 <= 0
 cc_alt_vars_14 <= 0
 cc_alt_vars_16 <= 0
 cc_alt_vars_21 <= 0
 cc_alt_vars_11 <= 0
 cc_alt_vars_4 <= 0
 cc_alt_vars_12 <= 0
 cc_alt_vars_10 <= 0
Scenario 968
Bounds
 cc_alt_vars_1 <= 0
 cc_alt_vars_22 <= 0
 cc_alt_vars_20 <= 0
 cc_alt_vars_9 <= 0
 cc_alt_vars_8 <= 0
 cc_alt_vars_7 <= 0
 cc_alt_vars_15 <= 0
 cc_alt_vars_19 <= 0
 cc_alt_vars_2 <= 0
 cc_alt_vars_14 <= 0
 cc_alt_vars_16 <= 0
 cc_alt_vars_21 <= 0
 cc_alt_vars_11 <= 0
 cc_alt_vars_4 <= 0
 cc_alt_vars_12 <= 0
 cc_alt_vars_5 <= 0
Scenario 969
Bounds
 cc_alt_vars_22 <= 0
 cc_alt_vars_20 <= 0
 cc_alt_vars_9 <= 0
 cc_alt_vars_8 <= 0
 cc_alt_vars_7 <= 0
 cc_alt_vars_15 <= 0
 cc_alt_vars_19 <= 0
 cc_alt_vars_2 <= 0
 cc_alt_vars_0 <= 0
 cc_alt_vars_14 <= 0
 cc_alt_vars_16 <= 0
 cc_alt_vars_21 <= 0
 cc_alt_vars_11 <= 0
 cc_alt_vars_4 <= 0
 cc_alt_vars_12 <= 0
 cc_alt_vars_5 <= 0
Scenario 970
Bounds
 cc_alt_vars_1 <= 0
 cc_alt_vars_22 <= 0
 cc_alt_vars_20 <= 0
 cc_alt_vars_9 <= 0
 cc_alt_vars_8 <= 0
 cc_alt_vars_7 <= 0
 cc_alt_vars_15 <= 0
 cc_alt_vars_19 <= 0
 cc_alt_vars_0 <= 0
 cc_alt_vars_14 <= 0
 cc_alt_vars_16 <= 0
 cc_alt_vars_21 <= 0
 cc_alt_vars_11 <= 0
 cc_alt_vars_4 <= 0
 cc_alt_vars_12 <= 0
 cc_alt_vars_5 <= 0
Scenario 971
Bounds
 cc_alt_vars_1 <= 0
 cc_alt_vars_22 <= 0
 cc_alt_vars_20 <= 0
 cc_alt_vars_9 <= 0
 cc_alt_vars_8 <= 0
 cc_alt_vars_7 <= 0
 cc_alt_vars_15 <= 0
 cc_alt_vars_19 <= 0
 cc_alt_vars_2 <= 0
 cc_alt_vars_3 <= 0
 cc_alt_vars_14 <= 0
 cc_alt_vars_16 <= 0
 cc_alt_vars_21 <= 0
 cc_alt_vars_11 <= 0
 cc_alt_vars_12 <= 0
 cc_alt_vars_5 <= 0
Scenario 972
Bounds
 cc_alt_vars_22 <= 0
 cc_alt_vars_20 <= 0
 cc_alt_vars_9 <= 0
 cc_alt_vars_8 <= 0
 cc_alt_vars_7 <= 0
 cc_alt_vars_15 <= 0
 cc_alt_vars_19 <= 0
 cc_alt_vars_2 <= 0
 cc_alt_vars_0 <= 0
 cc_alt_vars_3 <= 0
 cc_alt_vars_14 <= 0
 cc_alt_vars_16 <= 0
 cc_alt_vars_21 <= 0
 cc_alt_vars_11 <= 0
 cc_alt_vars_12 <= 0
 cc_alt_vars_5 <= 0
Scenario 973
Bounds
 cc_alt_vars_1 <= 0
 cc_alt_vars_22 <= 0
 cc_alt_vars_20 <= 0
 cc_alt_vars_9 <= 0
 cc_alt_vars_8 <= 0
 cc_alt_vars_7 <= 0
 cc_alt_vars_15 <= 0
 cc_alt_vars_19 <= 0
 cc_alt_vars_0 <= 0
 cc_alt_vars_3 <= 0
 cc_alt_vars_14 <= 0
 cc_alt_vars_16 <= 0
 cc_alt_vars_21 <= 0
 cc_alt_vars_11 <= 0
 cc_alt_vars_12 <= 0
 cc_alt_vars_5 <= 0
Scenario 974
Bounds
 cc_alt_vars_1 <= 0
 cc_alt_vars_22 <= 0
 cc_alt_vars_20 <= 0
 cc_alt_vars_9 <= 0
 cc_alt_vars_8 <= 0
 cc_alt_vars_7 <= 0
 cc_alt_vars_15 <= 0
 cc_alt_vars_19 <= 0
 cc_alt_vars_2 <= 0
 cc_alt_vars_3 <= 0
 cc_alt_vars_14 <= 0
 cc_alt_vars_16 <= 0
 cc_alt_vars_21 <= 0
 cc_alt_vars_11 <= 0
 cc_alt_vars_4 <= 0
 cc_alt_vars_12 <= 0
Scenario 975
Bounds
 cc_alt_vars_22 <= 0
 cc_alt_vars_20 <= 0
 cc_alt_vars_9 <= 0
 cc_alt_vars_8 <= 0
 cc_alt_vars_7 <= 0
 cc_alt_vars_15 <= 0
 cc_alt_vars_19 <= 0
 cc_alt_vars_2 <= 0
 cc_alt_vars_0 <= 0
 cc_alt_vars_3 <= 0
 cc_alt_vars_14 <= 0
 cc_alt_vars_16 <= 0
 cc_alt_vars_21 <= 0
 cc_alt_vars_11 <= 0
 cc_alt_vars_4 <= 0
 cc_alt_vars_12 <= 0
Scenario 976
Bounds
 cc_alt_vars_1 <= 0
 cc_alt_vars_22 <= 0
 cc_alt_vars_20 <= 0
 cc_alt_vars_9 <= 0
 cc_alt_vars_8 <= 0
 cc_alt_vars_7 <= 0
 cc_alt_vars_15 <= 0
 cc_alt_vars_19 <= 0
 cc_alt_vars_0 <= 0
 cc_alt_vars_3 <= 0
 cc_alt_vars_14 <= 0
 cc_alt_vars_16 <= 0
 cc_alt_vars_21 <= 0
 cc_alt_vars_11 <= 0
 cc_alt_vars_4 <= 0
 cc_alt_vars_12 <= 0
Scenario 977
Bounds
 cc_alt_vars_1 <= 0
 cc_alt_vars_22 <= 0
 cc_alt_vars_20 <= 0
 cc_alt_vars_9 <= 0
 cc_alt_vars_8 <= 0
 cc_alt_vars_15 <= 0
 cc_alt_vars_19 <= 0
 cc_alt_vars_2 <= 0
 cc_alt_vars_6 <= 0
 cc_alt_vars_14 <= 0
 cc_alt_vars_16 <= 0
 cc_alt_vars_21 <= 0
 cc_alt_vars_11 <= 0
 cc_alt_vars_4 <= 0
 cc_alt_vars_12 <= 0
 cc_alt_vars_5 <= 0
Scenario 978
Bounds
 cc_alt_vars_22 <= 0
 cc_alt_vars_20 <= 0
 cc_alt_vars_9 <= 0
 cc_alt_vars_8 <= 0
 cc_alt_vars_15 <= 0
 cc_alt_vars_19 <= 0
 cc_alt_vars_2 <= 0
 cc_alt_vars_0 <= 0
 cc_alt_vars_6 <= 0
 cc_alt_vars_14 <= 0
 cc_alt_vars_16 <= 0
 cc_alt_vars_21 <= 0
 cc_alt_vars_11 <= 0
 cc_alt_vars_4 <= 0
 cc_alt_vars_12 <= 0
 cc_alt_vars_5 <= 0
Scenario 979
Bounds
 cc_alt_vars_1 <= 0
 cc_alt_vars_22 <= 0
 cc_alt_vars_20 <= 0
 cc_alt_vars_9 <= 0
 cc_alt_vars_8 <= 0
 cc_alt_vars_15 <= 0
 cc_alt_vars_19 <= 0
 cc_alt_vars_0 <= 0
 cc_alt_vars_6 <= 0
 cc_alt_vars_14 <= 0
 cc_alt_vars_16 <= 0
 cc_alt_vars_21 <= 0
 cc_alt_vars_11 <= 0
 cc_alt_vars_4 <= 0
 cc_alt_vars_12 <= 0
 cc_alt_vars_5 <= 0
Scenario 980
Bounds
 cc_alt_vars_1 <= 0
 cc_alt_vars_22 <= 0
 cc_alt_vars_20 <= 0
 cc_alt_vars_9 <= 0
 cc_alt_vars_8 <= 0
 cc_alt_vars_15 <= 0
 cc_alt_vars_19 <= 0
 cc_alt_vars_2 <= 0
 cc_alt_vars_6 <= 0
 cc_alt_vars_3 <= 0
 cc_alt_vars_14 <= 0
 cc_alt_vars_16 <= 0
 cc_alt_vars_21 <= 0
 cc_alt_vars_11 <= 0
 cc_alt_vars_12 <= 0
 cc_alt_vars_5 <= 0
Scenario 981
Bounds
 cc_alt_vars_22 <= 0
 cc_alt_vars_20 <= 0
 cc_alt_vars_9 <= 0
 cc_alt_vars_8 <= 0
 cc_alt_vars_15 <= 0
 cc_alt_vars_19 <= 0
 cc_alt_vars_2 <= 0
 cc_alt_vars_0 <= 0
 cc_alt_vars_6 <= 0
 cc_alt_vars_3 <= 0
 cc_alt_vars_14 <= 0
 cc_alt_vars_16 <= 0
 cc_alt_vars_21 <= 0
 cc_alt_vars_11 <= 0
 cc_alt_vars_12 <= 0
 cc_alt_vars_5 <= 0
Scenario 982
Bounds
 cc_alt_vars_1 <= 0
 cc_alt_vars_22 <= 0
 cc_alt_vars_20 <= 0
 cc_alt_vars_9 <= 0
 cc_alt_vars_8 <= 0
 cc_alt_vars_15 <= 0
 cc_alt_vars_19 <= 0
 cc_alt_vars_0 <= 0
 cc_alt_vars_6 <= 0
 cc_alt_vars_3 <= 0
 cc_alt_vars_14 <= 0
 cc_alt_vars_16 <= 0
 cc_alt_vars_21 <= 0
 cc_alt_vars_11 <= 0
 cc_alt_vars_12 <= 0
 cc_alt_vars_5 <= 0
Scenario 983
Bounds
 cc_alt_vars_1 <= 0
 cc_alt_vars_22 <= 0
 cc_alt_vars_20 <= 0
 cc_alt_vars_9 <= 0
 cc_alt_vars_8 <= 0
 cc_alt_vars_15 <= 0
 cc_alt_vars_19 <= 0
 cc_alt_vars_2 <= 0
 cc_alt_vars_6 <= 0
 cc_alt_vars_3 <= 0
 cc_alt_vars_14 <= 0
 cc_alt_vars_16 <= 0
 cc_alt_vars_21 <= 0
 cc_alt_vars_11 <= 0
 cc_alt_vars_4 <= 0
 cc_alt_vars_12 <= 0
Scenario 984
Bounds
 cc_alt_vars_22 <= 0
 cc_alt_vars_20 <= 0
 cc_alt_vars_9 <= 0
 cc_alt_vars_8 <= 0
 cc_alt_vars_15 <= 0
 cc_alt_vars_19 <= 0
 cc_alt_vars_2 <= 0
 cc_alt_vars_0 <= 0
 cc_alt_vars_6 <= 0
 cc_alt_vars_3 <= 0
 cc_alt_vars_14 <= 0
 cc_alt_vars_16 <= 0
 cc_alt_vars_21 <= 0
 cc_alt_vars_11 <= 0
 cc_alt_vars_4 <= 0
 cc_alt_vars_12 <= 0
Scenario 985
Bounds
 cc_alt_vars_1 <= 0
 cc_alt_vars_22 <= 0
 cc_alt_vars_20 <= 0
 cc_alt_vars_9 <= 0
 cc_alt_vars_8 <= 0
 cc_alt_vars_15 <= 0
 cc_alt_vars_19 <= 0
 cc_alt_vars_0 <= 0
 cc_alt_vars_6 <= 0
 cc_alt_vars_3 <= 0
 cc_alt_vars_14 <= 0
 cc_alt_vars_16 <= 0
 cc_alt_vars_21 <= 0
 cc_alt_vars_11 <= 0
 cc_alt_vars_4 <= 0
 cc_alt_vars_12 <= 0
Scenario 986
Bounds
 cc_alt_vars_1 <= 0
 cc_alt_vars_22 <= 0
 cc_alt_vars_20 <= 0
 cc_alt_vars_9 <= 0
 cc_alt_vars_7 <= 0
 cc_alt_vars_15 <= 0
 cc_alt_vars_19 <= 0
 cc_alt_vars_2 <= 0
 cc_alt_vars_6 <= 0
 cc_alt_vars_14 <= 0
 cc_alt_vars_16 <= 0
 cc_alt_vars_21 <= 0
 cc_alt_vars_11 <= 0
 cc_alt_vars_4 <= 0
 cc_alt_vars_12 <= 0
 cc_alt_vars_5 <= 0
Scenario 987
Bounds
 cc_alt_vars_22 <= 0
 cc_alt_vars_20 <= 0
 cc_alt_vars_9 <= 0
 cc_alt_vars_7 <= 0
 cc_alt_vars_15 <= 0
 cc_alt_vars_19 <= 0
 cc_alt_vars_2 <= 0
 cc_alt_vars_0 <= 0
 cc_alt_vars_6 <= 0
 cc_alt_vars_14 <= 0
 cc_alt_vars_16 <= 0
 cc_alt_vars_21 <= 0
 cc_alt_vars_11 <= 0
 cc_alt_vars_4 <= 0
 cc_alt_vars_12 <= 0
 cc_alt_vars_5 <= 0
Scenario 988
Bounds
 cc_alt_vars_1 <= 0
 cc_alt_vars_22 <= 0
 cc_alt_vars_20 <= 0
 cc_alt_vars_9 <= 0
 cc_alt_vars_7 <= 0
 cc_alt_vars_15 <= 0
 cc_alt_vars_19 <= 0
 cc_alt_vars_0 <= 0
 cc_alt_vars_6 <= 0
 cc_alt_vars_14 <= 0
 cc_alt_vars_16 <= 0
 cc_alt_vars_21 <= 0
 cc_alt_vars_11 <= 0
 cc_alt_vars_4 <= 0
 cc_alt_vars_12 <= 0
 cc_alt_vars_5 <= 0
Scenario 989
Bounds
 cc_alt_vars_1 <= 0
 cc_alt_vars_22 <= 0
 cc_alt_vars_20 <= 0
 cc_alt_vars_9 <= 0
 cc_alt_vars_7 <= 0
 cc_alt_vars_15 <= 0
 cc_alt_vars_19 <= 0
 cc_alt_vars_2 <= 0
 cc_alt_vars_6 <= 0
 cc_alt_vars_3 <= 0
 cc_alt_vars_14 <= 0
 cc_alt_vars_16 <= 0
 cc_alt_vars_21 <= 0
 cc_alt_vars_11 <= 0
 cc_alt_vars_12 <= 0
 cc_alt_vars_5 <= 0
Scenario 990
Bounds
 cc_alt_vars_22 <= 0
 cc_alt_vars_20 <= 0
 cc_alt_vars_9 <= 0
 cc_alt_vars_7 <= 0
 cc_alt_vars_15 <= 0
 cc_alt_vars_19 <= 0
 cc_alt_vars_2 <= 0
 cc_alt_vars_0 <= 0
 cc_alt_vars_6 <= 0
 cc_alt_vars_3 <= 0
 cc_alt_vars_14 <= 0
 cc_alt_vars_16 <= 0
 cc_alt_vars_21 <= 0
 cc_alt_vars_11 <= 0
 cc_alt_vars_12 <= 0
 cc_alt_vars_5 <= 0
Scenario 991
Bounds
 cc_alt_vars_1 <= 0
 cc_alt_vars_22 <= 0
 cc_alt_vars_20 <= 0
 cc_alt_vars_9 <= 0
 cc_alt_vars_7 <= 0
 cc_alt_vars_15 <= 0
 cc_alt_vars_19 <= 0
 cc_alt_vars_0 <= 0
 cc_alt_vars_6 <= 0
 cc_alt_vars_3 <= 0
 cc_alt_vars_14 <= 0
 cc_alt_vars_16 <= 0
 cc_alt_vars_21 <= 0
 cc_alt_vars_11 <= 0
 cc_alt_vars_12 <= 0
 cc_alt_vars_5 <= 0
Scenario 992
Bounds
 cc_alt_vars_1 <= 0
 cc_alt_vars_22 <= 0
 cc_alt_vars_20 <= 0
 cc_alt_vars_9 <= 0
 cc_alt_vars_7 <= 0
 cc_alt_vars_15 <= 0
 cc_alt_vars_19 <= 0
 cc_alt_vars_2 <= 0
 cc_alt_vars_6 <= 0
 cc_alt_vars_3 <= 0
 cc_alt_vars_14 <= 0
 cc_alt_vars_16 <= 0
 cc_alt_vars_21 <= 0
 cc_alt_vars_11 <= 0
 cc_alt_vars_4 <= 0
 cc_alt_vars_12 <= 0
Scenario 993
Bounds
 cc_alt_vars_22 <= 0
 cc_alt_vars_20 <= 0
 cc_alt_vars_9 <= 0
 cc_alt_vars_7 <= 0
 cc_alt_vars_15 <= 0
 cc_alt_vars_19 <= 0
 cc_alt_vars_2 <= 0
 cc_alt_vars_0 <= 0
 cc_alt_vars_6 <= 0
 cc_alt_vars_3 <= 0
 cc_alt_vars_14 <= 0
 cc_alt_vars_16 <= 0
 cc_alt_vars_21 <= 0
 cc_alt_vars_11 <= 0
 cc_alt_vars_4 <= 0
 cc_alt_vars_12 <= 0
Scenario 994
Bounds
 cc_alt_vars_1 <= 0
 cc_alt_vars_22 <= 0
 cc_alt_vars_20 <= 0
 cc_alt_vars_9 <= 0
 cc_alt_vars_7 <= 0
 cc_alt_vars_15 <= 0
 cc_alt_vars_19 <= 0
 cc_alt_vars_0 <= 0
 cc_alt_vars_6 <= 0
 cc_alt_vars_3 <= 0
 cc_alt_vars_14 <= 0
 cc_alt_vars_16 <= 0
 cc_alt_vars_21 <= 0
 cc_alt_vars_11 <= 0
 cc_alt_vars_4 <= 0
 cc_alt_vars_12 <= 0
Scenario 995
Bounds
 cc_alt_vars_1 <= 0
 cc_alt_vars_22 <= 0
 cc_alt_vars_20 <= 0
 cc_alt_vars_9 <= 0
 cc_alt_vars_8 <= 0
 cc_alt_vars_7 <= 0
 cc_alt_vars_15 <= 0
 cc_alt_vars_19 <= 0
 cc_alt_vars_2 <= 0
 cc_alt_vars_14 <= 0
 cc_alt_vars_16 <= 0
 cc_alt_vars_21 <= 0
 cc_alt_vars_4 <= 0
 cc_alt_vars_12 <= 0
 cc_alt_vars_5 <= 0
 cc_alt_vars_10 <= 0
Scenario 996
Bounds
 cc_alt_vars_22 <= 0
 cc_alt_vars_20 <= 0
 cc_alt_vars_9 <= 0
 cc_alt_vars_8 <= 0
 cc_alt_vars_7 <= 0
 cc_alt_vars_15 <= 0
 cc_alt_vars_19 <= 0
 cc_alt_vars_2 <= 0
 cc_alt_vars_0 <= 0
 cc_alt_vars_14 <= 0
 cc_alt_vars_16 <= 0
 cc_alt_vars_21 <= 0
 cc_alt_vars_4 <= 0
 cc_alt_vars_12 <= 0
 cc_alt_vars_5 <= 0
 cc_alt_vars_10 <= 0
Scenario 997
Bounds
 cc_alt_vars_1 <= 0
 cc_alt_vars_22 <= 0
 cc_alt_vars_20 <= 0
 cc_alt_vars_9 <= 0
 cc_alt_vars_8 <= 0
 cc_alt_vars_7 <= 0
 cc_alt_vars_15 <= 0
 cc_alt_vars_19 <= 0
 cc_alt_vars_0 <= 0
 cc_alt_vars_14 <= 0
 cc_alt_vars_16 <= 0
 cc_alt_vars_21 <= 0
 cc_alt_vars_4 <= 0
 cc_alt_vars_12 <= 0
 cc_alt_vars_5 <= 0
 cc_alt_vars_10 <= 0
Scenario 998
Bounds
 cc_alt_vars_1 <= 0
 cc_alt_vars_22 <= 0
 cc_alt_vars_20 <= 0
 cc_alt_vars_9 <= 0
 cc_alt_vars_8 <= 0
 cc_alt_vars_7 <= 0
 cc_alt_vars_15 <= 0
 cc_alt_vars_19 <= 0
 cc_alt_vars_2 <= 0
 cc_alt_vars_3 <= 0
 cc_alt_vars_14 <= 0
 cc_alt_vars_16 <= 0
 cc_alt_vars_21 <= 0
 cc_alt_vars_12 <= 0
 cc_alt_vars_5 <= 0
 cc_alt_vars_10 <= 0
Scenario 999
Bounds
 cc_alt_vars_22 <= 0
 cc_alt_vars_20 <= 0
 cc_alt_vars_9 <= 0
 cc_alt_vars_8 <= 0
 cc_alt_vars_7 <= 0
 cc_alt_vars_15 <= 0
 cc_alt_vars_19 <= 0
 cc_alt_vars_2 <= 0
 cc_alt_vars_0 <= 0
 cc_alt_vars_3 <= 0
 cc_alt_vars_14 <= 0
 cc_alt_vars_16 <= 0
 cc_alt_vars_21 <= 0
 cc_alt_vars_12 <= 0
 cc_alt_vars_5 <= 0
 cc_alt_vars_10 <= 0
End
