\ Model ilp
\ LP format - for model browsing. Use MPS format to capture full model detail.
\ Signature: 0xad16e92c4591e828
Maximize
  objective
Subject To
 pstg_entry_node: N2 = 1
 pstg_entry_edge: N2->N3(1) = 1
 pstg_exit_edges: N16->N30(46) + N15->N29(50) = 1
 pstg_inflow_N0: N15->N0(49) + N25->N0(53) - N0 + N8->N0(32) + N21->N0(18)
   + N27->N0(66) + N12->N0(11) + N17->N0(38) = 0
 pstg_inflow_N1: N18->N1(42) + N26->N1(60) + N28->N1(73) + N9->N1(27)
   + N16->N1(45) + N3->N1(2) + N22->N1(22) + N13->N1(6) - N1 = 0
 pstg_inflow_N3: - N3 + N2->N3(1) = 0
 pstg_inflow_N4: - N4 + N8->N4(33) = 0
 pstg_inflow_N5: N9->N5(28) - N5 = 0
 pstg_inflow_N6: N12->N6(12) - N6 = 0
 pstg_inflow_N7: N13->N7(7) - N7 = 0
 pstg_inflow_N8: N10->N8(64) + N25->N8(52) + N11->N8(31) - N8 + N21->N8(17)
   = 0
 pstg_inflow_N9: N11->N9(30) + N22->N9(23) - N9 + N26->N9(59) + N10->N9(63)
   = 0
 pstg_inflow_N10: N21->N10(19) - N10 = 0
 pstg_inflow_N11: - N11 + N22->N11(24) = 0
 pstg_inflow_N12: N14->N12(10) - N12 + N27->N12(65) = 0
 pstg_inflow_N13: N3->N13(3) + N14->N13(9) - N13 + N28->N13(72) = 0
 pstg_inflow_N14: - N14 + N3->N14(4) = 0
 pstg_inflow_N15: N17->N15(39) - N15 = 0
 pstg_inflow_N16: - N16 + N18->N16(43) = 0
 pstg_inflow_N17: - N17 + N20->N17(57) + N8->N17(34) + N19->N17(40) = 0
 pstg_inflow_N18: N20->N18(58) + N19->N18(41) - N18 + N9->N18(26) = 0
 pstg_inflow_N19: - N19 + N8->N19(35) = 0
 pstg_inflow_N20: - N20 + N9->N20(29) = 0
 pstg_inflow_N21: - N21 + N23->N21(20) + N12->N21(13) + N24->N21(70) = 0
 pstg_inflow_N22: N13->N22(5) + N24->N22(71) + N23->N22(21) - N22 = 0
 pstg_inflow_N23: N12->N23(14) - N23 = 0
 pstg_inflow_N24: N13->N24(8) - N24 = 0
 pstg_inflow_N25: N4->N25(37) - N25 = 0
 pstg_inflow_N26: - N26 + N5->N26(56) = 0
 pstg_inflow_N27: - N27 + N6->N27(16) = 0
 pstg_inflow_N28: - N28 + N7->N28(69) = 0
 pstg_inflow_N29: N15->N29(50) - N29 = 0
 pstg_inflow_N30: - N30 + N16->N30(46) = 0
 pstg-time: 102000 N14->N12(10) + 1500 N17 + 56 N26 + 1501 N20->N18(58)
   + 56 N28 + 484581 N3 + 2750 N12 + 2.0631e+07 N21 + 1501 N24->N22(71)
   + 89000 N5 - global-timing + 20000 N10->N8(64) + 22000 N23->N22(21)
   + 1501 N11->N9(30) + 89000 N7 + 268 N16 + 2250 N25 + 102000 N20->N17(57)
   + 6250 N0 + 68 N9 + 22000 N19->N18(41) + 37 N18 + 2250 N27
   + 1501 N14->N13(9) + 110000 N4 + 68 N13 + 20000 N23->N21(20) + 110000 N6
   + 10750 N15 + 102000 N11->N8(31) + 2750 N8 + 20000 N19->N17(40)
   + 102000 N24->N21(70) + 156 N1 + 515775 N22 + 22000 N10->N9(63) = 0
 pstg_tc_0: N1->N3(0) - N3->N1(2) = 0
 pstg_tc_1: - N12->N0(11) + N0->N12(15) = 0
 pstg_tc_2: N1->N22(25) - N22->N1(22) = 0
 pstg_tc_3: - N8->N0(32) + N0->N8(36) = 0
 pstg_tc_4: - N18->N1(42) + N1->N18(44) = 0
 pstg_tc_5: - N16->N1(45) + N1->N16(47) = 0
 pstg_tc_6: N0->N17(48) - N17->N0(38) = 0
 pstg_tc_7: - N15->N0(49) + N0->N15(51) = 0
 pstg_tc_8: - N25->N0(53) + N0->N25(54) = 0
 pstg_tc_9: N1->N9(55) - N9->N1(27) = 0
 pstg_tc_10: - N26->N1(60) + N1->N26(61) = 0
 pstg_tc_11: N0->N21(62) - N21->N0(18) = 0
 pstg_tc_12: N0->N27(67) - N27->N0(66) = 0
 pstg_tc_13: N1->N13(68) - N13->N1(6) = 0
 pstg_tc_14: N1->N28(74) - N28->N1(73) = 0
 pstg_tc_15: - N12->N0(11) + N0->N12(15) = 0
 pstg_tc_16: - N8->N0(32) + N0->N8(36) = 0
 pstg_tc_17: N0->N17(48) - N17->N0(38) = 0
 pstg_tc_18: - N15->N0(49) + N0->N15(51) = 0
 pstg_tc_19: - N25->N0(53) + N0->N25(54) = 0
 pstg_tc_20: N0->N27(67) - N27->N0(66) = 0
 pstg_tc_21: N1->N3(0) - N3->N1(2) = 0
 pstg_tc_22: N1->N22(25) - N22->N1(22) = 0
 pstg_tc_23: - N18->N1(42) + N1->N18(44) = 0
 pstg_tc_24: - N16->N1(45) + N1->N16(47) = 0
 pstg_tc_25: - N26->N1(60) + N1->N26(61) = 0
 pstg_tc_26: N1->N28(74) - N28->N1(73) = 0
 pstg_tc_27: N3->N13(3) - N1->N3(0) + N3->N1(2) + N3->N14(4) - N2->N3(1)
   = 0
 pstg_tc_28: N4->N25(37) - N8->N4(33) = 0
 pstg_tc_29: - N9->N5(28) + N5->N26(56) = 0
 pstg_tc_30: - N12->N6(12) + N6->N27(16) = 0
 pstg_tc_31: N7->N28(69) - N13->N7(7) = 0
 pstg_tc_32: N8->N19(35) - N10->N8(64) + N8->N0(32) + N8->N17(34)
   - N25->N8(52) - N0->N8(36) - N11->N8(31) + N8->N4(33) - N21->N8(17) = 0
 pstg_tc_33: N9->N5(28) - N1->N9(55) - N11->N9(30) - N22->N9(23)
   - N26->N9(59) + N9->N1(27) + N9->N20(29) - N10->N9(63) + N9->N18(26)
   = 0
 pstg_tc_34: - N21->N10(19) + N10->N8(64) + N10->N9(63) = 0
 pstg_tc_35: N11->N9(30) + N11->N8(31) - N22->N11(24) = 0
 pstg_tc_36: - N14->N12(10) + N12->N6(12) + N12->N23(14) + N12->N0(11)
   + N12->N21(13) - N0->N12(15) - N27->N12(65) = 0
 pstg_tc_37: - N3->N13(3) + N13->N22(5) + N13->N7(7) - N14->N13(9)
   - N1->N13(68) + N13->N1(6) + N13->N24(8) - N28->N13(72) = 0
 pstg_tc_38: N14->N12(10) + N14->N13(9) - N3->N14(4) = 0
 pstg_tc_39: N15->N0(49) - N0->N15(51) - N17->N15(39) + N15->N29(50) = 0
 pstg_tc_40: N16->N30(46) - N18->N16(43) + N16->N1(45) - N1->N16(47) = 0
 pstg_tc_41: N17->N15(39) - N0->N17(48) - N20->N17(57) - N8->N17(34)
   + N17->N0(38) - N19->N17(40) = 0
 pstg_tc_42: - N20->N18(58) + N18->N1(42) - N1->N18(44) - N19->N18(41)
   + N18->N16(43) - N9->N18(26) = 0
 pstg_tc_43: - N8->N19(35) + N19->N18(41) + N19->N17(40) = 0
 pstg_tc_44: N20->N18(58) + N20->N17(57) - N9->N20(29) = 0
 pstg_tc_45: N21->N10(19) - N0->N21(62) + N21->N0(18) - N23->N21(20)
   - N12->N21(13) - N24->N21(70) + N21->N8(17) = 0
 pstg_tc_46: - N13->N22(5) - N24->N22(71) - N23->N22(21) + N22->N9(23)
   - N1->N22(25) + N22->N1(22) + N22->N11(24) = 0
 pstg_tc_47: - N12->N23(14) + N23->N22(21) + N23->N21(20) = 0
 pstg_tc_48: N24->N22(71) + N24->N21(70) - N13->N24(8) = 0
 pstg_tc_49: N25->N0(53) - N4->N25(37) + N25->N8(52) - N0->N25(54) = 0
 pstg_tc_50: N26->N1(60) + N26->N9(59) - N1->N26(61) - N5->N26(56) = 0
 pstg_tc_51: - N0->N27(67) - N6->N27(16) + N27->N0(66) + N27->N12(65) = 0
 pstg_tc_52: - N1->N28(74) - N7->N28(69) + N28->N1(73) + N28->N13(72) = 0
 pstg_loop_constraint_0: N1->N3(0) - 1e+06 N2->N3(1) <= 0
 pstg_loop_constraint_1: - 1e+06 N14->N12(10) + N0->N12(15)
   - 1e+06 N27->N12(65) <= 0
 pstg_loop_constraint_2: - 1e+06 N13->N22(5) - 1e+06 N24->N22(71)
   - 1e+06 N23->N22(21) + N1->N22(25) <= 0
 pstg_loop_constraint_3: - 1e+06 N10->N8(64) - 1e+06 N25->N8(52)
   + N0->N8(36) - 1e+06 N11->N8(31) - 1e+06 N21->N8(17) <= 0
 pstg_loop_constraint_4: - 1e+06 N20->N18(58) + N1->N18(44)
   - 1e+06 N19->N18(41) - 1e+06 N9->N18(26) <= 0
 pstg_loop_constraint_5: - 1e+06 N18->N16(43) + N1->N16(47) <= 0
 pstg_loop_constraint_6: N0->N17(48) - 1e+06 N20->N17(57)
   - 1e+06 N8->N17(34) - 1e+06 N19->N17(40) <= 0
 pstg_loop_constraint_7: N0->N15(51) - 1e+06 N17->N15(39) <= 0
 pstg_loop_constraint_8: - 1e+06 N4->N25(37) + N0->N25(54) <= 0
 pstg_loop_constraint_9: N1->N9(55) - 1e+06 N11->N9(30) - 1e+06 N22->N9(23)
   - 1e+06 N26->N9(59) - 1e+06 N10->N9(63) <= 0
 pstg_loop_constraint_10: N1->N26(61) - 1e+06 N5->N26(56) <= 0
 pstg_loop_constraint_11: N0->N21(62) - 1e+06 N23->N21(20)
   - 1e+06 N12->N21(13) - 1e+06 N24->N21(70) <= 0
 pstg_loop_constraint_12: N0->N27(67) - 1e+06 N6->N27(16) <= 0
 pstg_loop_constraint_13: - 1e+06 N3->N13(3) - 1e+06 N14->N13(9)
   + N1->N13(68) - 1e+06 N28->N13(72) <= 0
 pstg_loop_constraint_14: N1->N28(74) - 1e+06 N7->N28(69) <= 0
 pstg_loop_constraint_15: - 1e+06 N14->N12(10) + N21->N10(19) + N15->N0(49)
   + N0->N27(67) + N12->N6(12) + N0->N15(51) + N12->N23(14) + N8->N19(35)
   + N25->N0(53) + N0->N21(62) + N4->N25(37) + N10->N8(64) + N17->N15(39)
   + N0->N17(48) - 1e+06 N20->N17(57) + N8->N0(32) + N15->N29(50)
   + N6->N27(16) + N8->N17(34) + N25->N8(52) + N21->N0(18) + N0->N8(36)
   + N27->N0(66) + N12->N0(11) + N23->N21(20) + N17->N0(38) + N12->N21(13)
   - 1e+06 N11->N8(31) + N19->N17(40) - 1e+06 N24->N21(70) + N0->N12(15)
   + N8->N4(33) + N0->N25(54) + N21->N8(17) + N27->N12(65) <= 0
 pstg_loop_constraint_16: - 1e+06 N11->N9(30) - 1e+06 N22->N9(23)
   + N26->N9(59) - 1e+06 N10->N9(63) <= 0
 pstg_loop_constraint_17: - 1e+06 N10->N8(64) + N25->N8(52)
   - 1e+06 N11->N8(31) - 1e+06 N21->N8(17) <= 0
 pstg_loop_constraint_18: - 1e+06 N3->N13(3) - 1e+06 N14->N13(9)
   + N28->N13(72) <= 0
 pstg_loop_constraint_19: - 1e+06 N14->N12(10) + N27->N12(65) <= 0
 pstg_iat_constraint_0: 3.65e+08 N15->N0(49) + 3.65e+08 N18->N1(42)
   + 3.65e+08 N26->N1(60) + 3.65e+08 N25->N0(53) - global-timing
   + 3.65e+08 N8->N0(32) + 3.65e+08 N28->N1(73) + 3.65e+08 N21->N0(18)
   + 3.65e+08 N9->N1(27) + 3.65e+08 N16->N1(45) + 3.65e+08 N3->N1(2)
   + 3.65e+08 N27->N0(66) + 3.65e+08 N12->N0(11) + 3.65e+08 N17->N0(38)
   + 3.65e+08 N22->N1(22) + 3.65e+08 N13->N1(6) <= 3.65e+08
 pstg_upper_bound_0: - 900 N10->N8(64) - 900 N11->N9(30) - 900 N22->N9(23)
   + N26->N9(59) + N25->N8(52) - 900 N11->N8(31) - 900 N10->N9(63)
   - 900 N21->N8(17) <= 0
 pstg_upper_bound_1: - 900 N14->N12(10) - 900 N3->N13(3) - 900 N14->N13(9)
   + N28->N13(72) + N27->N12(65) <= 0
 cc_alt_cstr_0: - cc_alt_vars_0 + N22->N9(23) + N21->N8(17) = 0
 cc_alt_cstr_1: N11->N9(30) - cc_alt_vars_1 + N10->N9(63) = 0
 cc_alt_cstr_2: - cc_alt_vars_2 + N10->N8(64) + N11->N8(31) = 0
 cc_alt_cstr_3: N3->N13(3) - cc_alt_vars_3 = 0
 cc_alt_cstr_4: N14->N13(9) - cc_alt_vars_4 = 0
 cc_alt_cstr_5: N14->N12(10) - cc_alt_vars_5 = 0
 cc_alt_cstr_6: - cc_alt_vars_6 + N8->N17(34) + N9->N18(26) = 0
 cc_alt_cstr_7: N20->N18(58) + N19->N18(41) - cc_alt_vars_7 = 0
 cc_alt_cstr_8: - cc_alt_vars_8 + N20->N17(57) + N19->N17(40) = 0
 cc_alt_cstr_9: N13->N22(5) + N12->N21(13) - cc_alt_vars_9 = 0
 cc_alt_cstr_10: - cc_alt_vars_10 + N24->N22(71) + N23->N22(21) = 0
 cc_alt_cstr_11: - cc_alt_vars_11 + N23->N21(20) + N24->N21(70) = 0
 objective_constraint: - 5826.130962 N14->N12(10) - 42.7245 N17
   - 5.916288 N26 - 307.800304494 N20->N18(58) - 5.916288 N28
   - 51195.013488 N3 - 78.32825 N12 - 587632.773 N21
   - 307.800304494 N24->N22(71) - 8182.438034 N5 - 493.52632 N10->N8(64)
   - 617.54 N23->N22(21) - 307.800304494 N11->N9(30) - 8182.438034 N7
   - 28.313664 N16 - 64.08674999999999 N25 - 5826.130962 N20->N17(57)
   - 178.01875 N0 - 7.184064 N9 - 617.54 N19->N18(41) - 3.908976 N18
   - 64.08674999999999 N27 - 307.800304494 N14->N13(9) - 2731.54299 N4
   - 7.184064 N13 - 493.52632 N23->N21(20) - 2731.54299 N6 - 306.19225 N15
   - 5826.130962 N11->N8(31) - 78.32825 N8 - 493.52632 N19->N17(40)
   - 5826.130962 N24->N21(70) - 16.481088 N1 - 54490.5972 N22
   - 617.54 N10->N9(63) + objective = 0
Bounds
Generals
 N14->N12(10) cc_alt_vars_0 N1->N28(74) N21->N10(19) cc_alt_vars_10 N17
 N15->N0(49) N26 N20->N18(58) N3->N13(3) N0->N27(67) N12->N6(12)
 cc_alt_vars_6 N10 N18->N1(42) N19 N0->N15(51) N28 N26->N1(60) N13->N22(5)
 N7->N28(69) N12->N23(14) cc_alt_vars_2 N3 N8->N19(35) N12 N1->N18(44) N21
 N25->N0(53) N30 N0->N21(62) N13->N7(7) N24->N22(71) N9->N5(28) N5
 N4->N25(37) N14 N16->N30(46) N23 global-timing N1->N9(55) N1->N3(0)
 N10->N8(64) cc_alt_vars_8 N23->N22(21) N11->N9(30) N7 N17->N15(39) N16
 cc_alt_vars_11 N0->N17(48) N25 N20->N17(57) cc_alt_vars_3 N22->N9(23) N0
 N8->N0(32) N9 N19->N18(41) N18 N15->N29(50) N27 N26->N9(59) N6->N27(16)
 cc_alt_vars_5 N1->N22(25) N2 N8->N17(34) N11 N18->N16(43) N20 N25->N8(52)
 N14->N13(9) N28->N1(73) N21->N0(18) N9->N1(27) N4 cc_alt_vars_1 N0->N8(36)
 N13 N16->N1(45) N3->N1(2) N27->N0(66) N12->N0(11) N23->N21(20)
 cc_alt_vars_7 N9->N20(29) N6 N17->N0(38) N15 N3->N14(4) cc_alt_vars_4
 N1->N13(68) N12->N21(13) N22->N1(22) N11->N8(31) N8 N19->N17(40) N29
 N1->N26(61) N13->N1(6) N24->N21(70) N0->N12(15) N22->N11(24) N1 N8->N4(33)
 N22 N0->N25(54) cc_alt_vars_9 N10->N9(63) N13->N24(8) N28->N13(72)
 N21->N8(17) N9->N18(26) N1->N16(47) N24 N5->N26(56) N2->N3(1) N27->N12(65)
Scenario 0
Bounds
 cc_alt_vars_10 <= 0
 cc_alt_vars_2 <= 0
 cc_alt_vars_8 <= 0
 cc_alt_vars_11 <= 0
 cc_alt_vars_5 <= 0
 cc_alt_vars_1 <= 0
 cc_alt_vars_7 <= 0
 cc_alt_vars_4 <= 0
Scenario 1
Bounds
 cc_alt_vars_0 <= 0
 cc_alt_vars_10 <= 0
 cc_alt_vars_2 <= 0
 cc_alt_vars_8 <= 0
 cc_alt_vars_11 <= 0
 cc_alt_vars_5 <= 0
 cc_alt_vars_7 <= 0
 cc_alt_vars_4 <= 0
Scenario 2
Bounds
 cc_alt_vars_0 <= 0
 cc_alt_vars_10 <= 0
 cc_alt_vars_8 <= 0
 cc_alt_vars_11 <= 0
 cc_alt_vars_5 <= 0
 cc_alt_vars_1 <= 0
 cc_alt_vars_7 <= 0
 cc_alt_vars_4 <= 0
Scenario 3
Bounds
 cc_alt_vars_10 <= 0
 cc_alt_vars_2 <= 0
 cc_alt_vars_8 <= 0
 cc_alt_vars_11 <= 0
 cc_alt_vars_3 <= 0
 cc_alt_vars_5 <= 0
 cc_alt_vars_1 <= 0
 cc_alt_vars_7 <= 0
Scenario 4
Bounds
 cc_alt_vars_0 <= 0
 cc_alt_vars_10 <= 0
 cc_alt_vars_2 <= 0
 cc_alt_vars_8 <= 0
 cc_alt_vars_11 <= 0
 cc_alt_vars_3 <= 0
 cc_alt_vars_5 <= 0
 cc_alt_vars_7 <= 0
Scenario 5
Bounds
 cc_alt_vars_0 <= 0
 cc_alt_vars_10 <= 0
 cc_alt_vars_8 <= 0
 cc_alt_vars_11 <= 0
 cc_alt_vars_3 <= 0
 cc_alt_vars_5 <= 0
 cc_alt_vars_1 <= 0
 cc_alt_vars_7 <= 0
Scenario 6
Bounds
 cc_alt_vars_10 <= 0
 cc_alt_vars_2 <= 0
 cc_alt_vars_8 <= 0
 cc_alt_vars_11 <= 0
 cc_alt_vars_3 <= 0
 cc_alt_vars_1 <= 0
 cc_alt_vars_7 <= 0
 cc_alt_vars_4 <= 0
Scenario 7
Bounds
 cc_alt_vars_0 <= 0
 cc_alt_vars_10 <= 0
 cc_alt_vars_2 <= 0
 cc_alt_vars_8 <= 0
 cc_alt_vars_11 <= 0
 cc_alt_vars_3 <= 0
 cc_alt_vars_7 <= 0
 cc_alt_vars_4 <= 0
Scenario 8
Bounds
 cc_alt_vars_0 <= 0
 cc_alt_vars_10 <= 0
 cc_alt_vars_8 <= 0
 cc_alt_vars_11 <= 0
 cc_alt_vars_3 <= 0
 cc_alt_vars_1 <= 0
 cc_alt_vars_7 <= 0
 cc_alt_vars_4 <= 0
Scenario 9
Bounds
 cc_alt_vars_10 <= 0
 cc_alt_vars_6 <= 0
 cc_alt_vars_2 <= 0
 cc_alt_vars_8 <= 0
 cc_alt_vars_11 <= 0
 cc_alt_vars_5 <= 0
 cc_alt_vars_1 <= 0
 cc_alt_vars_4 <= 0
Scenario 10
Bounds
 cc_alt_vars_0 <= 0
 cc_alt_vars_10 <= 0
 cc_alt_vars_6 <= 0
 cc_alt_vars_2 <= 0
 cc_alt_vars_8 <= 0
 cc_alt_vars_11 <= 0
 cc_alt_vars_5 <= 0
 cc_alt_vars_4 <= 0
Scenario 11
Bounds
 cc_alt_vars_0 <= 0
 cc_alt_vars_10 <= 0
 cc_alt_vars_6 <= 0
 cc_alt_vars_8 <= 0
 cc_alt_vars_11 <= 0
 cc_alt_vars_5 <= 0
 cc_alt_vars_1 <= 0
 cc_alt_vars_4 <= 0
Scenario 12
Bounds
 cc_alt_vars_10 <= 0
 cc_alt_vars_6 <= 0
 cc_alt_vars_2 <= 0
 cc_alt_vars_8 <= 0
 cc_alt_vars_11 <= 0
 cc_alt_vars_3 <= 0
 cc_alt_vars_5 <= 0
 cc_alt_vars_1 <= 0
Scenario 13
Bounds
 cc_alt_vars_0 <= 0
 cc_alt_vars_10 <= 0
 cc_alt_vars_6 <= 0
 cc_alt_vars_2 <= 0
 cc_alt_vars_8 <= 0
 cc_alt_vars_11 <= 0
 cc_alt_vars_3 <= 0
 cc_alt_vars_5 <= 0
Scenario 14
Bounds
 cc_alt_vars_0 <= 0
 cc_alt_vars_10 <= 0
 cc_alt_vars_6 <= 0
 cc_alt_vars_8 <= 0
 cc_alt_vars_11 <= 0
 cc_alt_vars_3 <= 0
 cc_alt_vars_5 <= 0
 cc_alt_vars_1 <= 0
Scenario 15
Bounds
 cc_alt_vars_10 <= 0
 cc_alt_vars_6 <= 0
 cc_alt_vars_2 <= 0
 cc_alt_vars_8 <= 0
 cc_alt_vars_11 <= 0
 cc_alt_vars_3 <= 0
 cc_alt_vars_1 <= 0
 cc_alt_vars_4 <= 0
Scenario 16
Bounds
 cc_alt_vars_0 <= 0
 cc_alt_vars_10 <= 0
 cc_alt_vars_6 <= 0
 cc_alt_vars_2 <= 0
 cc_alt_vars_8 <= 0
 cc_alt_vars_11 <= 0
 cc_alt_vars_3 <= 0
 cc_alt_vars_4 <= 0
Scenario 17
Bounds
 cc_alt_vars_0 <= 0
 cc_alt_vars_10 <= 0
 cc_alt_vars_6 <= 0
 cc_alt_vars_8 <= 0
 cc_alt_vars_11 <= 0
 cc_alt_vars_3 <= 0
 cc_alt_vars_1 <= 0
 cc_alt_vars_4 <= 0
Scenario 18
Bounds
 cc_alt_vars_10 <= 0
 cc_alt_vars_6 <= 0
 cc_alt_vars_2 <= 0
 cc_alt_vars_11 <= 0
 cc_alt_vars_5 <= 0
 cc_alt_vars_1 <= 0
 cc_alt_vars_7 <= 0
 cc_alt_vars_4 <= 0
Scenario 19
Bounds
 cc_alt_vars_0 <= 0
 cc_alt_vars_10 <= 0
 cc_alt_vars_6 <= 0
 cc_alt_vars_2 <= 0
 cc_alt_vars_11 <= 0
 cc_alt_vars_5 <= 0
 cc_alt_vars_7 <= 0
 cc_alt_vars_4 <= 0
Scenario 20
Bounds
 cc_alt_vars_0 <= 0
 cc_alt_vars_10 <= 0
 cc_alt_vars_6 <= 0
 cc_alt_vars_11 <= 0
 cc_alt_vars_5 <= 0
 cc_alt_vars_1 <= 0
 cc_alt_vars_7 <= 0
 cc_alt_vars_4 <= 0
Scenario 21
Bounds
 cc_alt_vars_10 <= 0
 cc_alt_vars_6 <= 0
 cc_alt_vars_2 <= 0
 cc_alt_vars_11 <= 0
 cc_alt_vars_3 <= 0
 cc_alt_vars_5 <= 0
 cc_alt_vars_1 <= 0
 cc_alt_vars_7 <= 0
Scenario 22
Bounds
 cc_alt_vars_0 <= 0
 cc_alt_vars_10 <= 0
 cc_alt_vars_6 <= 0
 cc_alt_vars_2 <= 0
 cc_alt_vars_11 <= 0
 cc_alt_vars_3 <= 0
 cc_alt_vars_5 <= 0
 cc_alt_vars_7 <= 0
Scenario 23
Bounds
 cc_alt_vars_0 <= 0
 cc_alt_vars_10 <= 0
 cc_alt_vars_6 <= 0
 cc_alt_vars_11 <= 0
 cc_alt_vars_3 <= 0
 cc_alt_vars_5 <= 0
 cc_alt_vars_1 <= 0
 cc_alt_vars_7 <= 0
Scenario 24
Bounds
 cc_alt_vars_10 <= 0
 cc_alt_vars_6 <= 0
 cc_alt_vars_2 <= 0
 cc_alt_vars_11 <= 0
 cc_alt_vars_3 <= 0
 cc_alt_vars_1 <= 0
 cc_alt_vars_7 <= 0
 cc_alt_vars_4 <= 0
Scenario 25
Bounds
 cc_alt_vars_0 <= 0
 cc_alt_vars_10 <= 0
 cc_alt_vars_6 <= 0
 cc_alt_vars_2 <= 0
 cc_alt_vars_11 <= 0
 cc_alt_vars_3 <= 0
 cc_alt_vars_7 <= 0
 cc_alt_vars_4 <= 0
Scenario 26
Bounds
 cc_alt_vars_0 <= 0
 cc_alt_vars_10 <= 0
 cc_alt_vars_6 <= 0
 cc_alt_vars_11 <= 0
 cc_alt_vars_3 <= 0
 cc_alt_vars_1 <= 0
 cc_alt_vars_7 <= 0
 cc_alt_vars_4 <= 0
Scenario 27
Bounds
 cc_alt_vars_2 <= 0
 cc_alt_vars_8 <= 0
 cc_alt_vars_11 <= 0
 cc_alt_vars_5 <= 0
 cc_alt_vars_1 <= 0
 cc_alt_vars_7 <= 0
 cc_alt_vars_4 <= 0
 cc_alt_vars_9 <= 0
Scenario 28
Bounds
 cc_alt_vars_0 <= 0
 cc_alt_vars_2 <= 0
 cc_alt_vars_8 <= 0
 cc_alt_vars_11 <= 0
 cc_alt_vars_5 <= 0
 cc_alt_vars_7 <= 0
 cc_alt_vars_4 <= 0
 cc_alt_vars_9 <= 0
Scenario 29
Bounds
 cc_alt_vars_0 <= 0
 cc_alt_vars_8 <= 0
 cc_alt_vars_11 <= 0
 cc_alt_vars_5 <= 0
 cc_alt_vars_1 <= 0
 cc_alt_vars_7 <= 0
 cc_alt_vars_4 <= 0
 cc_alt_vars_9 <= 0
Scenario 30
Bounds
 cc_alt_vars_2 <= 0
 cc_alt_vars_8 <= 0
 cc_alt_vars_11 <= 0
 cc_alt_vars_3 <= 0
 cc_alt_vars_5 <= 0
 cc_alt_vars_1 <= 0
 cc_alt_vars_7 <= 0
 cc_alt_vars_9 <= 0
Scenario 31
Bounds
 cc_alt_vars_0 <= 0
 cc_alt_vars_2 <= 0
 cc_alt_vars_8 <= 0
 cc_alt_vars_11 <= 0
 cc_alt_vars_3 <= 0
 cc_alt_vars_5 <= 0
 cc_alt_vars_7 <= 0
 cc_alt_vars_9 <= 0
Scenario 32
Bounds
 cc_alt_vars_0 <= 0
 cc_alt_vars_8 <= 0
 cc_alt_vars_11 <= 0
 cc_alt_vars_3 <= 0
 cc_alt_vars_5 <= 0
 cc_alt_vars_1 <= 0
 cc_alt_vars_7 <= 0
 cc_alt_vars_9 <= 0
Scenario 33
Bounds
 cc_alt_vars_2 <= 0
 cc_alt_vars_8 <= 0
 cc_alt_vars_11 <= 0
 cc_alt_vars_3 <= 0
 cc_alt_vars_1 <= 0
 cc_alt_vars_7 <= 0
 cc_alt_vars_4 <= 0
 cc_alt_vars_9 <= 0
Scenario 34
Bounds
 cc_alt_vars_0 <= 0
 cc_alt_vars_2 <= 0
 cc_alt_vars_8 <= 0
 cc_alt_vars_11 <= 0
 cc_alt_vars_3 <= 0
 cc_alt_vars_7 <= 0
 cc_alt_vars_4 <= 0
 cc_alt_vars_9 <= 0
Scenario 35
Bounds
 cc_alt_vars_0 <= 0
 cc_alt_vars_8 <= 0
 cc_alt_vars_11 <= 0
 cc_alt_vars_3 <= 0
 cc_alt_vars_1 <= 0
 cc_alt_vars_7 <= 0
 cc_alt_vars_4 <= 0
 cc_alt_vars_9 <= 0
Scenario 36
Bounds
 cc_alt_vars_6 <= 0
 cc_alt_vars_2 <= 0
 cc_alt_vars_8 <= 0
 cc_alt_vars_11 <= 0
 cc_alt_vars_5 <= 0
 cc_alt_vars_1 <= 0
 cc_alt_vars_4 <= 0
 cc_alt_vars_9 <= 0
Scenario 37
Bounds
 cc_alt_vars_0 <= 0
 cc_alt_vars_6 <= 0
 cc_alt_vars_2 <= 0
 cc_alt_vars_8 <= 0
 cc_alt_vars_11 <= 0
 cc_alt_vars_5 <= 0
 cc_alt_vars_4 <= 0
 cc_alt_vars_9 <= 0
Scenario 38
Bounds
 cc_alt_vars_0 <= 0
 cc_alt_vars_6 <= 0
 cc_alt_vars_8 <= 0
 cc_alt_vars_11 <= 0
 cc_alt_vars_5 <= 0
 cc_alt_vars_1 <= 0
 cc_alt_vars_4 <= 0
 cc_alt_vars_9 <= 0
Scenario 39
Bounds
 cc_alt_vars_6 <= 0
 cc_alt_vars_2 <= 0
 cc_alt_vars_8 <= 0
 cc_alt_vars_11 <= 0
 cc_alt_vars_3 <= 0
 cc_alt_vars_5 <= 0
 cc_alt_vars_1 <= 0
 cc_alt_vars_9 <= 0
Scenario 40
Bounds
 cc_alt_vars_0 <= 0
 cc_alt_vars_6 <= 0
 cc_alt_vars_2 <= 0
 cc_alt_vars_8 <= 0
 cc_alt_vars_11 <= 0
 cc_alt_vars_3 <= 0
 cc_alt_vars_5 <= 0
 cc_alt_vars_9 <= 0
Scenario 41
Bounds
 cc_alt_vars_0 <= 0
 cc_alt_vars_6 <= 0
 cc_alt_vars_8 <= 0
 cc_alt_vars_11 <= 0
 cc_alt_vars_3 <= 0
 cc_alt_vars_5 <= 0
 cc_alt_vars_1 <= 0
 cc_alt_vars_9 <= 0
Scenario 42
Bounds
 cc_alt_vars_6 <= 0
 cc_alt_vars_2 <= 0
 cc_alt_vars_8 <= 0
 cc_alt_vars_11 <= 0
 cc_alt_vars_3 <= 0
 cc_alt_vars_1 <= 0
 cc_alt_vars_4 <= 0
 cc_alt_vars_9 <= 0
Scenario 43
Bounds
 cc_alt_vars_0 <= 0
 cc_alt_vars_6 <= 0
 cc_alt_vars_2 <= 0
 cc_alt_vars_8 <= 0
 cc_alt_vars_11 <= 0
 cc_alt_vars_3 <= 0
 cc_alt_vars_4 <= 0
 cc_alt_vars_9 <= 0
Scenario 44
Bounds
 cc_alt_vars_0 <= 0
 cc_alt_vars_6 <= 0
 cc_alt_vars_8 <= 0
 cc_alt_vars_11 <= 0
 cc_alt_vars_3 <= 0
 cc_alt_vars_1 <= 0
 cc_alt_vars_4 <= 0
 cc_alt_vars_9 <= 0
Scenario 45
Bounds
 cc_alt_vars_6 <= 0
 cc_alt_vars_2 <= 0
 cc_alt_vars_11 <= 0
 cc_alt_vars_5 <= 0
 cc_alt_vars_1 <= 0
 cc_alt_vars_7 <= 0
 cc_alt_vars_4 <= 0
 cc_alt_vars_9 <= 0
Scenario 46
Bounds
 cc_alt_vars_0 <= 0
 cc_alt_vars_6 <= 0
 cc_alt_vars_2 <= 0
 cc_alt_vars_11 <= 0
 cc_alt_vars_5 <= 0
 cc_alt_vars_7 <= 0
 cc_alt_vars_4 <= 0
 cc_alt_vars_9 <= 0
Scenario 47
Bounds
 cc_alt_vars_0 <= 0
 cc_alt_vars_6 <= 0
 cc_alt_vars_11 <= 0
 cc_alt_vars_5 <= 0
 cc_alt_vars_1 <= 0
 cc_alt_vars_7 <= 0
 cc_alt_vars_4 <= 0
 cc_alt_vars_9 <= 0
Scenario 48
Bounds
 cc_alt_vars_6 <= 0
 cc_alt_vars_2 <= 0
 cc_alt_vars_11 <= 0
 cc_alt_vars_3 <= 0
 cc_alt_vars_5 <= 0
 cc_alt_vars_1 <= 0
 cc_alt_vars_7 <= 0
 cc_alt_vars_9 <= 0
Scenario 49
Bounds
 cc_alt_vars_0 <= 0
 cc_alt_vars_6 <= 0
 cc_alt_vars_2 <= 0
 cc_alt_vars_11 <= 0
 cc_alt_vars_3 <= 0
 cc_alt_vars_5 <= 0
 cc_alt_vars_7 <= 0
 cc_alt_vars_9 <= 0
Scenario 50
Bounds
 cc_alt_vars_0 <= 0
 cc_alt_vars_6 <= 0
 cc_alt_vars_11 <= 0
 cc_alt_vars_3 <= 0
 cc_alt_vars_5 <= 0
 cc_alt_vars_1 <= 0
 cc_alt_vars_7 <= 0
 cc_alt_vars_9 <= 0
Scenario 51
Bounds
 cc_alt_vars_6 <= 0
 cc_alt_vars_2 <= 0
 cc_alt_vars_11 <= 0
 cc_alt_vars_3 <= 0
 cc_alt_vars_1 <= 0
 cc_alt_vars_7 <= 0
 cc_alt_vars_4 <= 0
 cc_alt_vars_9 <= 0
Scenario 52
Bounds
 cc_alt_vars_0 <= 0
 cc_alt_vars_6 <= 0
 cc_alt_vars_2 <= 0
 cc_alt_vars_11 <= 0
 cc_alt_vars_3 <= 0
 cc_alt_vars_7 <= 0
 cc_alt_vars_4 <= 0
 cc_alt_vars_9 <= 0
Scenario 53
Bounds
 cc_alt_vars_0 <= 0
 cc_alt_vars_6 <= 0
 cc_alt_vars_11 <= 0
 cc_alt_vars_3 <= 0
 cc_alt_vars_1 <= 0
 cc_alt_vars_7 <= 0
 cc_alt_vars_4 <= 0
 cc_alt_vars_9 <= 0
Scenario 54
Bounds
 cc_alt_vars_10 <= 0
 cc_alt_vars_2 <= 0
 cc_alt_vars_8 <= 0
 cc_alt_vars_5 <= 0
 cc_alt_vars_1 <= 0
 cc_alt_vars_7 <= 0
 cc_alt_vars_4 <= 0
 cc_alt_vars_9 <= 0
Scenario 55
Bounds
 cc_alt_vars_0 <= 0
 cc_alt_vars_10 <= 0
 cc_alt_vars_2 <= 0
 cc_alt_vars_8 <= 0
 cc_alt_vars_5 <= 0
 cc_alt_vars_7 <= 0
 cc_alt_vars_4 <= 0
 cc_alt_vars_9 <= 0
Scenario 56
Bounds
 cc_alt_vars_0 <= 0
 cc_alt_vars_10 <= 0
 cc_alt_vars_8 <= 0
 cc_alt_vars_5 <= 0
 cc_alt_vars_1 <= 0
 cc_alt_vars_7 <= 0
 cc_alt_vars_4 <= 0
 cc_alt_vars_9 <= 0
Scenario 57
Bounds
 cc_alt_vars_10 <= 0
 cc_alt_vars_2 <= 0
 cc_alt_vars_8 <= 0
 cc_alt_vars_3 <= 0
 cc_alt_vars_5 <= 0
 cc_alt_vars_1 <= 0
 cc_alt_vars_7 <= 0
 cc_alt_vars_9 <= 0
Scenario 58
Bounds
 cc_alt_vars_0 <= 0
 cc_alt_vars_10 <= 0
 cc_alt_vars_2 <= 0
 cc_alt_vars_8 <= 0
 cc_alt_vars_3 <= 0
 cc_alt_vars_5 <= 0
 cc_alt_vars_7 <= 0
 cc_alt_vars_9 <= 0
Scenario 59
Bounds
 cc_alt_vars_0 <= 0
 cc_alt_vars_10 <= 0
 cc_alt_vars_8 <= 0
 cc_alt_vars_3 <= 0
 cc_alt_vars_5 <= 0
 cc_alt_vars_1 <= 0
 cc_alt_vars_7 <= 0
 cc_alt_vars_9 <= 0
Scenario 60
Bounds
 cc_alt_vars_10 <= 0
 cc_alt_vars_2 <= 0
 cc_alt_vars_8 <= 0
 cc_alt_vars_3 <= 0
 cc_alt_vars_1 <= 0
 cc_alt_vars_7 <= 0
 cc_alt_vars_4 <= 0
 cc_alt_vars_9 <= 0
Scenario 61
Bounds
 cc_alt_vars_0 <= 0
 cc_alt_vars_10 <= 0
 cc_alt_vars_2 <= 0
 cc_alt_vars_8 <= 0
 cc_alt_vars_3 <= 0
 cc_alt_vars_7 <= 0
 cc_alt_vars_4 <= 0
 cc_alt_vars_9 <= 0
Scenario 62
Bounds
 cc_alt_vars_0 <= 0
 cc_alt_vars_10 <= 0
 cc_alt_vars_8 <= 0
 cc_alt_vars_3 <= 0
 cc_alt_vars_1 <= 0
 cc_alt_vars_7 <= 0
 cc_alt_vars_4 <= 0
 cc_alt_vars_9 <= 0
Scenario 63
Bounds
 cc_alt_vars_10 <= 0
 cc_alt_vars_6 <= 0
 cc_alt_vars_2 <= 0
 cc_alt_vars_8 <= 0
 cc_alt_vars_5 <= 0
 cc_alt_vars_1 <= 0
 cc_alt_vars_4 <= 0
 cc_alt_vars_9 <= 0
Scenario 64
Bounds
 cc_alt_vars_0 <= 0
 cc_alt_vars_10 <= 0
 cc_alt_vars_6 <= 0
 cc_alt_vars_2 <= 0
 cc_alt_vars_8 <= 0
 cc_alt_vars_5 <= 0
 cc_alt_vars_4 <= 0
 cc_alt_vars_9 <= 0
Scenario 65
Bounds
 cc_alt_vars_0 <= 0
 cc_alt_vars_10 <= 0
 cc_alt_vars_6 <= 0
 cc_alt_vars_8 <= 0
 cc_alt_vars_5 <= 0
 cc_alt_vars_1 <= 0
 cc_alt_vars_4 <= 0
 cc_alt_vars_9 <= 0
Scenario 66
Bounds
 cc_alt_vars_10 <= 0
 cc_alt_vars_6 <= 0
 cc_alt_vars_2 <= 0
 cc_alt_vars_8 <= 0
 cc_alt_vars_3 <= 0
 cc_alt_vars_5 <= 0
 cc_alt_vars_1 <= 0
 cc_alt_vars_9 <= 0
Scenario 67
Bounds
 cc_alt_vars_0 <= 0
 cc_alt_vars_10 <= 0
 cc_alt_vars_6 <= 0
 cc_alt_vars_2 <= 0
 cc_alt_vars_8 <= 0
 cc_alt_vars_3 <= 0
 cc_alt_vars_5 <= 0
 cc_alt_vars_9 <= 0
Scenario 68
Bounds
 cc_alt_vars_0 <= 0
 cc_alt_vars_10 <= 0
 cc_alt_vars_6 <= 0
 cc_alt_vars_8 <= 0
 cc_alt_vars_3 <= 0
 cc_alt_vars_5 <= 0
 cc_alt_vars_1 <= 0
 cc_alt_vars_9 <= 0
Scenario 69
Bounds
 cc_alt_vars_10 <= 0
 cc_alt_vars_6 <= 0
 cc_alt_vars_2 <= 0
 cc_alt_vars_8 <= 0
 cc_alt_vars_3 <= 0
 cc_alt_vars_1 <= 0
 cc_alt_vars_4 <= 0
 cc_alt_vars_9 <= 0
Scenario 70
Bounds
 cc_alt_vars_0 <= 0
 cc_alt_vars_10 <= 0
 cc_alt_vars_6 <= 0
 cc_alt_vars_2 <= 0
 cc_alt_vars_8 <= 0
 cc_alt_vars_3 <= 0
 cc_alt_vars_4 <= 0
 cc_alt_vars_9 <= 0
Scenario 71
Bounds
 cc_alt_vars_0 <= 0
 cc_alt_vars_10 <= 0
 cc_alt_vars_6 <= 0
 cc_alt_vars_8 <= 0
 cc_alt_vars_3 <= 0
 cc_alt_vars_1 <= 0
 cc_alt_vars_4 <= 0
 cc_alt_vars_9 <= 0
Scenario 72
Bounds
 cc_alt_vars_10 <= 0
 cc_alt_vars_6 <= 0
 cc_alt_vars_2 <= 0
 cc_alt_vars_5 <= 0
 cc_alt_vars_1 <= 0
 cc_alt_vars_7 <= 0
 cc_alt_vars_4 <= 0
 cc_alt_vars_9 <= 0
Scenario 73
Bounds
 cc_alt_vars_0 <= 0
 cc_alt_vars_10 <= 0
 cc_alt_vars_6 <= 0
 cc_alt_vars_2 <= 0
 cc_alt_vars_5 <= 0
 cc_alt_vars_7 <= 0
 cc_alt_vars_4 <= 0
 cc_alt_vars_9 <= 0
Scenario 74
Bounds
 cc_alt_vars_0 <= 0
 cc_alt_vars_10 <= 0
 cc_alt_vars_6 <= 0
 cc_alt_vars_5 <= 0
 cc_alt_vars_1 <= 0
 cc_alt_vars_7 <= 0
 cc_alt_vars_4 <= 0
 cc_alt_vars_9 <= 0
Scenario 75
Bounds
 cc_alt_vars_10 <= 0
 cc_alt_vars_6 <= 0
 cc_alt_vars_2 <= 0
 cc_alt_vars_3 <= 0
 cc_alt_vars_5 <= 0
 cc_alt_vars_1 <= 0
 cc_alt_vars_7 <= 0
 cc_alt_vars_9 <= 0
Scenario 76
Bounds
 cc_alt_vars_0 <= 0
 cc_alt_vars_10 <= 0
 cc_alt_vars_6 <= 0
 cc_alt_vars_2 <= 0
 cc_alt_vars_3 <= 0
 cc_alt_vars_5 <= 0
 cc_alt_vars_7 <= 0
 cc_alt_vars_9 <= 0
Scenario 77
Bounds
 cc_alt_vars_0 <= 0
 cc_alt_vars_10 <= 0
 cc_alt_vars_6 <= 0
 cc_alt_vars_3 <= 0
 cc_alt_vars_5 <= 0
 cc_alt_vars_1 <= 0
 cc_alt_vars_7 <= 0
 cc_alt_vars_9 <= 0
Scenario 78
Bounds
 cc_alt_vars_10 <= 0
 cc_alt_vars_6 <= 0
 cc_alt_vars_2 <= 0
 cc_alt_vars_3 <= 0
 cc_alt_vars_1 <= 0
 cc_alt_vars_7 <= 0
 cc_alt_vars_4 <= 0
 cc_alt_vars_9 <= 0
Scenario 79
Bounds
 cc_alt_vars_0 <= 0
 cc_alt_vars_10 <= 0
 cc_alt_vars_6 <= 0
 cc_alt_vars_2 <= 0
 cc_alt_vars_3 <= 0
 cc_alt_vars_7 <= 0
 cc_alt_vars_4 <= 0
 cc_alt_vars_9 <= 0
Scenario 80
Bounds
 cc_alt_vars_0 <= 0
 cc_alt_vars_10 <= 0
 cc_alt_vars_6 <= 0
 cc_alt_vars_3 <= 0
 cc_alt_vars_1 <= 0
 cc_alt_vars_7 <= 0
 cc_alt_vars_4 <= 0
 cc_alt_vars_9 <= 0
End
