\ Model ilp
\ LP format - for model browsing. Use MPS format to capture full model detail.
\ Signature: 0xcb025e5a12391c0b
Maximize
  objective
Subject To
 pstg_entry_node: N0 = 1
 pstg_entry_edge: N0->N1(7) = 1
 pstg_exit_edges: N14->N26(30) + N13->N25(27) = 1
 pstg_inflow_N1: N0->N1(7) - N1 = 0
 pstg_inflow_N2: - N2 + N6->N2(23) = 0
 pstg_inflow_N3: N7->N3(19) - N3 = 0
 pstg_inflow_N4: - N4 + N10->N4(8) = 0
 pstg_inflow_N5: - N5 + N11->N5(3) = 0
 pstg_inflow_N6: N8->N6(37) + N17->N6(12) - N6 + N9->N6(22) + N21->N6(31)
   = 0
 pstg_inflow_N7: N22->N7(35) + N9->N7(21) + N18->N7(16) + N8->N7(36) - N7
   = 0
 pstg_inflow_N8: - N8 + N17->N8(13) = 0
 pstg_inflow_N9: - N9 + N18->N9(17) = 0
 pstg_inflow_N10: N12->N10(6) - N10 + N23->N10(38) = 0
 pstg_inflow_N11: - N11 + N12->N11(5) + N1->N11(0) + N24->N11(42) = 0
 pstg_inflow_N12: - N12 + N1->N12(1) = 0
 pstg_inflow_N13: N15->N13(28) - N13 + N6->N13(24) + N16->N13(33) = 0
 pstg_inflow_N14: N16->N14(34) + N7->N14(18) + N15->N14(29) - N14 = 0
 pstg_inflow_N15: N6->N15(25) - N15 = 0
 pstg_inflow_N16: N7->N16(20) - N16 = 0
 pstg_inflow_N17: N19->N17(14) + N10->N17(9) - N17 + N20->N17(40) = 0
 pstg_inflow_N18: N20->N18(41) + N11->N18(2) + N19->N18(15) - N18 = 0
 pstg_inflow_N19: - N19 + N10->N19(10) = 0
 pstg_inflow_N20: - N20 + N11->N20(4) = 0
 pstg_inflow_N21: - N21 + N2->N21(26) = 0
 pstg_inflow_N22: N3->N22(32) - N22 = 0
 pstg_inflow_N23: N4->N23(11) - N23 = 0
 pstg_inflow_N24: N5->N24(39) - N24 = 0
 pstg_inflow_N25: N13->N25(27) - N25 = 0
 pstg_inflow_N26: N14->N26(30) - N26 = 0
 pstg-time: 110000 N2 + 68 N11 + 20000 N15->N13(28) + 20000 N8->N6(37)
   + 110000 N4 + 2250 N13 + 1501 N9->N7(21) + 2750 N6 + 1501 N12->N11(5)
   + 20000 N19->N17(14) + 1501 N20->N18(41) - global-timing
   + 1501 N16->N14(34) + 56 N22 + 22000 N15->N14(29) + 56 N24
   + 2.06325e+07 N17 + 102000 N9->N6(22) + 484581 N1 + 102000 N12->N10(6)
   + 2750 N10 + 22000 N19->N18(15) + 22000 N8->N7(36) + 89000 N3 + 2250 N21
   + 89000 N5 + 56 N14 + 2250 N23 + 102000 N20->N17(40) + 68 N7
   + 102000 N16->N13(33) + 515812 N18 = 0
 pstg_tc_0: - N0->N1(7) + N1->N11(0) + N1->N12(1) = 0
 pstg_tc_1: - N6->N2(23) + N2->N21(26) = 0
 pstg_tc_2: - N7->N3(19) + N3->N22(32) = 0
 pstg_tc_3: N4->N23(11) - N10->N4(8) = 0
 pstg_tc_4: N5->N24(39) - N11->N5(3) = 0
 pstg_tc_5: - N8->N6(37) - N17->N6(12) + N6->N2(23) + N6->N15(25)
   - N9->N6(22) - N21->N6(31) + N6->N13(24) = 0
 pstg_tc_6: - N22->N7(35) + N7->N3(19) - N9->N7(21) - N18->N7(16)
   + N7->N14(18) + N7->N16(20) - N8->N7(36) = 0
 pstg_tc_7: N8->N6(37) - N17->N8(13) + N8->N7(36) = 0
 pstg_tc_8: N9->N7(21) + N9->N6(22) - N18->N9(17) = 0
 pstg_tc_9: N10->N17(9) - N12->N10(6) + N10->N4(8) - N23->N10(38)
   + N10->N19(10) = 0
 pstg_tc_10: - N12->N11(5) - N1->N11(0) + N11->N18(2) + N11->N20(4)
   + N11->N5(3) - N24->N11(42) = 0
 pstg_tc_11: N12->N11(5) + N12->N10(6) - N1->N12(1) = 0
 pstg_tc_12: - N15->N13(28) + N13->N25(27) - N6->N13(24) - N16->N13(33)
   = 0
 pstg_tc_13: N14->N26(30) - N16->N14(34) - N7->N14(18) - N15->N14(29) = 0
 pstg_tc_14: N15->N13(28) - N6->N15(25) + N15->N14(29) = 0
 pstg_tc_15: N16->N14(34) - N7->N16(20) + N16->N13(33) = 0
 pstg_tc_16: N17->N6(12) - N19->N17(14) - N10->N17(9) + N17->N8(13)
   - N20->N17(40) = 0
 pstg_tc_17: - N20->N18(41) + N18->N7(16) - N11->N18(2) - N19->N18(15)
   + N18->N9(17) = 0
 pstg_tc_18: N19->N17(14) + N19->N18(15) - N10->N19(10) = 0
 pstg_tc_19: N20->N18(41) - N11->N20(4) + N20->N17(40) = 0
 pstg_tc_20: N21->N6(31) - N2->N21(26) = 0
 pstg_tc_21: N22->N7(35) - N3->N22(32) = 0
 pstg_tc_22: - N4->N23(11) + N23->N10(38) = 0
 pstg_tc_23: - N5->N24(39) + N24->N11(42) = 0
 pstg_loop_constraint_0: N15->N13(28) + N8->N6(37) + N17->N6(12)
   + N19->N17(14) + N6->N2(23) + N6->N15(25) + N10->N17(9) + N13->N25(27)
   + N4->N23(11) + N17->N8(13) - 1e+06 N9->N6(22) - 1e+06 N12->N10(6)
   + N10->N4(8) + N23->N10(38) + N10->N19(10) + N21->N6(31)
   - 1e+06 N20->N17(40) + N6->N13(24) - 1e+06 N16->N13(33) + N2->N21(26)
   <= 0
 pstg_loop_constraint_1: N22->N7(35) - 1e+06 N9->N7(21) - 1e+06 N18->N7(16)
   - 1e+06 N8->N7(36) <= 0
 pstg_loop_constraint_2: - 1e+06 N8->N6(37) - 1e+06 N17->N6(12)
   - 1e+06 N9->N6(22) + N21->N6(31) <= 0
 pstg_loop_constraint_3: - 1e+06 N12->N11(5) - 1e+06 N1->N11(0)
   + N24->N11(42) <= 0
 pstg_loop_constraint_4: - 1e+06 N12->N10(6) + N23->N10(38) <= 0
 pstg_upper_bound_0: N22->N7(35) - 900 N8->N6(37) - 900 N17->N6(12)
   - 900 N9->N7(21) - 900 N18->N7(16) - 900 N9->N6(22) - 900 N8->N7(36)
   + N21->N6(31) <= 0
 pstg_upper_bound_1: - 900 N12->N11(5) - 900 N1->N11(0) - 900 N12->N10(6)
   + N23->N10(38) + N24->N11(42) <= 0
 cc_alt_cstr_0: N17->N6(12) + N18->N7(16) - cc_alt_vars_0 = 0
 cc_alt_cstr_1: N9->N7(21) - cc_alt_vars_1 + N8->N7(36) = 0
 cc_alt_cstr_2: N8->N6(37) - cc_alt_vars_2 + N9->N6(22) = 0
 cc_alt_cstr_3: - cc_alt_vars_3 + N1->N11(0) = 0
 cc_alt_cstr_4: - cc_alt_vars_4 + N12->N11(5) = 0
 cc_alt_cstr_5: - cc_alt_vars_5 + N12->N10(6) = 0
 cc_alt_cstr_6: N7->N14(18) - cc_alt_vars_6 + N6->N13(24) = 0
 cc_alt_cstr_7: N16->N14(34) + N15->N14(29) - cc_alt_vars_7 = 0
 cc_alt_cstr_8: N15->N13(28) - cc_alt_vars_8 + N16->N13(33) = 0
 cc_alt_cstr_9: N10->N17(9) + N11->N18(2) - cc_alt_vars_9 = 0
 cc_alt_cstr_10: N20->N18(41) - cc_alt_vars_10 + N19->N18(15) = 0
 cc_alt_cstr_11: N19->N17(14) - cc_alt_vars_11 + N20->N17(40) = 0
 objective_constraint: - 2731.54299 N2 - 7.184064 N11
   - 493.52632 N15->N13(28) - 493.52632 N8->N6(37) - 2731.54299 N4
   - 64.08674999999999 N13 - 307.800304494 N9->N7(21) - 78.32825 N6
   - 307.800304494 N12->N11(5) - 493.52632 N19->N17(14)
   - 307.800304494 N20->N18(41) - 307.800304494 N16->N14(34) - 5.916288 N22
   - 617.54 N15->N14(29) - 5.916288 N24 - 587675.4975000001 N17
   - 5826.130962 N9->N6(22) - 51195.013488 N1 - 5826.130962 N12->N10(6)
   - 78.32825 N10 - 617.54 N19->N18(15) - 617.54 N8->N7(36)
   - 8182.438034 N3 - 64.08674999999999 N21 - 8182.438034 N5 - 5.916288 N14
   - 64.08674999999999 N23 - 5826.130962 N20->N17(40) - 7.184064 N7
   - 5826.130962 N16->N13(33) - 54494.506176 N18 + objective = 0
Bounds
Generals
 N22->N7(35) N2 cc_alt_vars_4 N11 N20 N7->N3(19) cc_alt_vars_5 N15->N13(28)
 N8->N6(37) N4 N13 N17->N6(12) N9->N7(21) N14->N26(30) N5->N24(39) N6
 cc_alt_vars_3 N12->N11(5) N19->N17(14) cc_alt_vars_2 N6->N2(23)
 N3->N22(32) cc_alt_vars_8 N20->N18(41) N0->N1(7) N18->N7(16) global-timing
 N6->N15(25) N16->N14(34) N1->N11(0) N10->N17(9) N7->N14(18) N22
 N13->N25(27) cc_alt_vars_11 N11->N18(2) N4->N23(11) N15 N7->N16(20)
 cc_alt_vars_6 N15->N14(29) N24 cc_alt_vars_10 N11->N20(4) N8 N17->N8(13)
 N17 N9->N6(22) cc_alt_vars_9 N26 N1 N12->N10(6) cc_alt_vars_1 N10
 N19->N18(15) N19 N8->N7(36) N3 N10->N4(8) N12 N21 N23->N10(38) N1->N12(1)
 N5 N10->N19(10) N14 N23 N21->N6(31) N20->N17(40) N11->N5(3) N7 N16 N25
 N6->N13(24) N16->N13(33) N24->N11(42) cc_alt_vars_0 N0 cc_alt_vars_7 N9
 N18 N18->N9(17) N2->N21(26)
Scenario 0
Bounds
 cc_alt_vars_4 <= 0
 cc_alt_vars_5 <= 0
 cc_alt_vars_2 <= 0
 cc_alt_vars_8 <= 0
 cc_alt_vars_11 <= 0
 cc_alt_vars_10 <= 0
 cc_alt_vars_1 <= 0
 cc_alt_vars_7 <= 0
Scenario 1
Bounds
 cc_alt_vars_4 <= 0
 cc_alt_vars_5 <= 0
 cc_alt_vars_2 <= 0
 cc_alt_vars_8 <= 0
 cc_alt_vars_11 <= 0
 cc_alt_vars_10 <= 0
 cc_alt_vars_0 <= 0
 cc_alt_vars_7 <= 0
Scenario 2
Bounds
 cc_alt_vars_4 <= 0
 cc_alt_vars_5 <= 0
 cc_alt_vars_8 <= 0
 cc_alt_vars_11 <= 0
 cc_alt_vars_10 <= 0
 cc_alt_vars_1 <= 0
 cc_alt_vars_0 <= 0
 cc_alt_vars_7 <= 0
Scenario 3
Bounds
 cc_alt_vars_5 <= 0
 cc_alt_vars_3 <= 0
 cc_alt_vars_2 <= 0
 cc_alt_vars_8 <= 0
 cc_alt_vars_11 <= 0
 cc_alt_vars_10 <= 0
 cc_alt_vars_1 <= 0
 cc_alt_vars_7 <= 0
Scenario 4
Bounds
 cc_alt_vars_5 <= 0
 cc_alt_vars_3 <= 0
 cc_alt_vars_2 <= 0
 cc_alt_vars_8 <= 0
 cc_alt_vars_11 <= 0
 cc_alt_vars_10 <= 0
 cc_alt_vars_0 <= 0
 cc_alt_vars_7 <= 0
Scenario 5
Bounds
 cc_alt_vars_5 <= 0
 cc_alt_vars_3 <= 0
 cc_alt_vars_8 <= 0
 cc_alt_vars_11 <= 0
 cc_alt_vars_10 <= 0
 cc_alt_vars_1 <= 0
 cc_alt_vars_0 <= 0
 cc_alt_vars_7 <= 0
Scenario 6
Bounds
 cc_alt_vars_4 <= 0
 cc_alt_vars_3 <= 0
 cc_alt_vars_2 <= 0
 cc_alt_vars_8 <= 0
 cc_alt_vars_11 <= 0
 cc_alt_vars_10 <= 0
 cc_alt_vars_1 <= 0
 cc_alt_vars_7 <= 0
Scenario 7
Bounds
 cc_alt_vars_4 <= 0
 cc_alt_vars_3 <= 0
 cc_alt_vars_2 <= 0
 cc_alt_vars_8 <= 0
 cc_alt_vars_11 <= 0
 cc_alt_vars_10 <= 0
 cc_alt_vars_0 <= 0
 cc_alt_vars_7 <= 0
Scenario 8
Bounds
 cc_alt_vars_4 <= 0
 cc_alt_vars_3 <= 0
 cc_alt_vars_8 <= 0
 cc_alt_vars_11 <= 0
 cc_alt_vars_10 <= 0
 cc_alt_vars_1 <= 0
 cc_alt_vars_0 <= 0
 cc_alt_vars_7 <= 0
Scenario 9
Bounds
 cc_alt_vars_4 <= 0
 cc_alt_vars_5 <= 0
 cc_alt_vars_2 <= 0
 cc_alt_vars_8 <= 0
 cc_alt_vars_11 <= 0
 cc_alt_vars_6 <= 0
 cc_alt_vars_10 <= 0
 cc_alt_vars_1 <= 0
Scenario 10
Bounds
 cc_alt_vars_4 <= 0
 cc_alt_vars_5 <= 0
 cc_alt_vars_2 <= 0
 cc_alt_vars_8 <= 0
 cc_alt_vars_11 <= 0
 cc_alt_vars_6 <= 0
 cc_alt_vars_10 <= 0
 cc_alt_vars_0 <= 0
Scenario 11
Bounds
 cc_alt_vars_4 <= 0
 cc_alt_vars_5 <= 0
 cc_alt_vars_8 <= 0
 cc_alt_vars_11 <= 0
 cc_alt_vars_6 <= 0
 cc_alt_vars_10 <= 0
 cc_alt_vars_1 <= 0
 cc_alt_vars_0 <= 0
Scenario 12
Bounds
 cc_alt_vars_5 <= 0
 cc_alt_vars_3 <= 0
 cc_alt_vars_2 <= 0
 cc_alt_vars_8 <= 0
 cc_alt_vars_11 <= 0
 cc_alt_vars_6 <= 0
 cc_alt_vars_10 <= 0
 cc_alt_vars_1 <= 0
Scenario 13
Bounds
 cc_alt_vars_5 <= 0
 cc_alt_vars_3 <= 0
 cc_alt_vars_2 <= 0
 cc_alt_vars_8 <= 0
 cc_alt_vars_11 <= 0
 cc_alt_vars_6 <= 0
 cc_alt_vars_10 <= 0
 cc_alt_vars_0 <= 0
Scenario 14
Bounds
 cc_alt_vars_5 <= 0
 cc_alt_vars_3 <= 0
 cc_alt_vars_8 <= 0
 cc_alt_vars_11 <= 0
 cc_alt_vars_6 <= 0
 cc_alt_vars_10 <= 0
 cc_alt_vars_1 <= 0
 cc_alt_vars_0 <= 0
Scenario 15
Bounds
 cc_alt_vars_4 <= 0
 cc_alt_vars_3 <= 0
 cc_alt_vars_2 <= 0
 cc_alt_vars_8 <= 0
 cc_alt_vars_11 <= 0
 cc_alt_vars_6 <= 0
 cc_alt_vars_10 <= 0
 cc_alt_vars_1 <= 0
Scenario 16
Bounds
 cc_alt_vars_4 <= 0
 cc_alt_vars_3 <= 0
 cc_alt_vars_2 <= 0
 cc_alt_vars_8 <= 0
 cc_alt_vars_11 <= 0
 cc_alt_vars_6 <= 0
 cc_alt_vars_10 <= 0
 cc_alt_vars_0 <= 0
Scenario 17
Bounds
 cc_alt_vars_4 <= 0
 cc_alt_vars_3 <= 0
 cc_alt_vars_8 <= 0
 cc_alt_vars_11 <= 0
 cc_alt_vars_6 <= 0
 cc_alt_vars_10 <= 0
 cc_alt_vars_1 <= 0
 cc_alt_vars_0 <= 0
Scenario 18
Bounds
 cc_alt_vars_4 <= 0
 cc_alt_vars_5 <= 0
 cc_alt_vars_2 <= 0
 cc_alt_vars_11 <= 0
 cc_alt_vars_6 <= 0
 cc_alt_vars_10 <= 0
 cc_alt_vars_1 <= 0
 cc_alt_vars_7 <= 0
Scenario 19
Bounds
 cc_alt_vars_4 <= 0
 cc_alt_vars_5 <= 0
 cc_alt_vars_2 <= 0
 cc_alt_vars_11 <= 0
 cc_alt_vars_6 <= 0
 cc_alt_vars_10 <= 0
 cc_alt_vars_0 <= 0
 cc_alt_vars_7 <= 0
Scenario 20
Bounds
 cc_alt_vars_4 <= 0
 cc_alt_vars_5 <= 0
 cc_alt_vars_11 <= 0
 cc_alt_vars_6 <= 0
 cc_alt_vars_10 <= 0
 cc_alt_vars_1 <= 0
 cc_alt_vars_0 <= 0
 cc_alt_vars_7 <= 0
Scenario 21
Bounds
 cc_alt_vars_5 <= 0
 cc_alt_vars_3 <= 0
 cc_alt_vars_2 <= 0
 cc_alt_vars_11 <= 0
 cc_alt_vars_6 <= 0
 cc_alt_vars_10 <= 0
 cc_alt_vars_1 <= 0
 cc_alt_vars_7 <= 0
Scenario 22
Bounds
 cc_alt_vars_5 <= 0
 cc_alt_vars_3 <= 0
 cc_alt_vars_2 <= 0
 cc_alt_vars_11 <= 0
 cc_alt_vars_6 <= 0
 cc_alt_vars_10 <= 0
 cc_alt_vars_0 <= 0
 cc_alt_vars_7 <= 0
Scenario 23
Bounds
 cc_alt_vars_5 <= 0
 cc_alt_vars_3 <= 0
 cc_alt_vars_11 <= 0
 cc_alt_vars_6 <= 0
 cc_alt_vars_10 <= 0
 cc_alt_vars_1 <= 0
 cc_alt_vars_0 <= 0
 cc_alt_vars_7 <= 0
Scenario 24
Bounds
 cc_alt_vars_4 <= 0
 cc_alt_vars_3 <= 0
 cc_alt_vars_2 <= 0
 cc_alt_vars_11 <= 0
 cc_alt_vars_6 <= 0
 cc_alt_vars_10 <= 0
 cc_alt_vars_1 <= 0
 cc_alt_vars_7 <= 0
Scenario 25
Bounds
 cc_alt_vars_4 <= 0
 cc_alt_vars_3 <= 0
 cc_alt_vars_2 <= 0
 cc_alt_vars_11 <= 0
 cc_alt_vars_6 <= 0
 cc_alt_vars_10 <= 0
 cc_alt_vars_0 <= 0
 cc_alt_vars_7 <= 0
Scenario 26
Bounds
 cc_alt_vars_4 <= 0
 cc_alt_vars_3 <= 0
 cc_alt_vars_11 <= 0
 cc_alt_vars_6 <= 0
 cc_alt_vars_10 <= 0
 cc_alt_vars_1 <= 0
 cc_alt_vars_0 <= 0
 cc_alt_vars_7 <= 0
Scenario 27
Bounds
 cc_alt_vars_4 <= 0
 cc_alt_vars_5 <= 0
 cc_alt_vars_2 <= 0
 cc_alt_vars_8 <= 0
 cc_alt_vars_11 <= 0
 cc_alt_vars_9 <= 0
 cc_alt_vars_1 <= 0
 cc_alt_vars_7 <= 0
Scenario 28
Bounds
 cc_alt_vars_4 <= 0
 cc_alt_vars_5 <= 0
 cc_alt_vars_2 <= 0
 cc_alt_vars_8 <= 0
 cc_alt_vars_11 <= 0
 cc_alt_vars_9 <= 0
 cc_alt_vars_0 <= 0
 cc_alt_vars_7 <= 0
Scenario 29
Bounds
 cc_alt_vars_4 <= 0
 cc_alt_vars_5 <= 0
 cc_alt_vars_8 <= 0
 cc_alt_vars_11 <= 0
 cc_alt_vars_9 <= 0
 cc_alt_vars_1 <= 0
 cc_alt_vars_0 <= 0
 cc_alt_vars_7 <= 0
Scenario 30
Bounds
 cc_alt_vars_5 <= 0
 cc_alt_vars_3 <= 0
 cc_alt_vars_2 <= 0
 cc_alt_vars_8 <= 0
 cc_alt_vars_11 <= 0
 cc_alt_vars_9 <= 0
 cc_alt_vars_1 <= 0
 cc_alt_vars_7 <= 0
Scenario 31
Bounds
 cc_alt_vars_5 <= 0
 cc_alt_vars_3 <= 0
 cc_alt_vars_2 <= 0
 cc_alt_vars_8 <= 0
 cc_alt_vars_11 <= 0
 cc_alt_vars_9 <= 0
 cc_alt_vars_0 <= 0
 cc_alt_vars_7 <= 0
Scenario 32
Bounds
 cc_alt_vars_5 <= 0
 cc_alt_vars_3 <= 0
 cc_alt_vars_8 <= 0
 cc_alt_vars_11 <= 0
 cc_alt_vars_9 <= 0
 cc_alt_vars_1 <= 0
 cc_alt_vars_0 <= 0
 cc_alt_vars_7 <= 0
Scenario 33
Bounds
 cc_alt_vars_4 <= 0
 cc_alt_vars_3 <= 0
 cc_alt_vars_2 <= 0
 cc_alt_vars_8 <= 0
 cc_alt_vars_11 <= 0
 cc_alt_vars_9 <= 0
 cc_alt_vars_1 <= 0
 cc_alt_vars_7 <= 0
Scenario 34
Bounds
 cc_alt_vars_4 <= 0
 cc_alt_vars_3 <= 0
 cc_alt_vars_2 <= 0
 cc_alt_vars_8 <= 0
 cc_alt_vars_11 <= 0
 cc_alt_vars_9 <= 0
 cc_alt_vars_0 <= 0
 cc_alt_vars_7 <= 0
Scenario 35
Bounds
 cc_alt_vars_4 <= 0
 cc_alt_vars_3 <= 0
 cc_alt_vars_8 <= 0
 cc_alt_vars_11 <= 0
 cc_alt_vars_9 <= 0
 cc_alt_vars_1 <= 0
 cc_alt_vars_0 <= 0
 cc_alt_vars_7 <= 0
Scenario 36
Bounds
 cc_alt_vars_4 <= 0
 cc_alt_vars_5 <= 0
 cc_alt_vars_2 <= 0
 cc_alt_vars_8 <= 0
 cc_alt_vars_11 <= 0
 cc_alt_vars_6 <= 0
 cc_alt_vars_9 <= 0
 cc_alt_vars_1 <= 0
Scenario 37
Bounds
 cc_alt_vars_4 <= 0
 cc_alt_vars_5 <= 0
 cc_alt_vars_2 <= 0
 cc_alt_vars_8 <= 0
 cc_alt_vars_11 <= 0
 cc_alt_vars_6 <= 0
 cc_alt_vars_9 <= 0
 cc_alt_vars_0 <= 0
Scenario 38
Bounds
 cc_alt_vars_4 <= 0
 cc_alt_vars_5 <= 0
 cc_alt_vars_8 <= 0
 cc_alt_vars_11 <= 0
 cc_alt_vars_6 <= 0
 cc_alt_vars_9 <= 0
 cc_alt_vars_1 <= 0
 cc_alt_vars_0 <= 0
Scenario 39
Bounds
 cc_alt_vars_5 <= 0
 cc_alt_vars_3 <= 0
 cc_alt_vars_2 <= 0
 cc_alt_vars_8 <= 0
 cc_alt_vars_11 <= 0
 cc_alt_vars_6 <= 0
 cc_alt_vars_9 <= 0
 cc_alt_vars_1 <= 0
Scenario 40
Bounds
 cc_alt_vars_5 <= 0
 cc_alt_vars_3 <= 0
 cc_alt_vars_2 <= 0
 cc_alt_vars_8 <= 0
 cc_alt_vars_11 <= 0
 cc_alt_vars_6 <= 0
 cc_alt_vars_9 <= 0
 cc_alt_vars_0 <= 0
Scenario 41
Bounds
 cc_alt_vars_5 <= 0
 cc_alt_vars_3 <= 0
 cc_alt_vars_8 <= 0
 cc_alt_vars_11 <= 0
 cc_alt_vars_6 <= 0
 cc_alt_vars_9 <= 0
 cc_alt_vars_1 <= 0
 cc_alt_vars_0 <= 0
Scenario 42
Bounds
 cc_alt_vars_4 <= 0
 cc_alt_vars_3 <= 0
 cc_alt_vars_2 <= 0
 cc_alt_vars_8 <= 0
 cc_alt_vars_11 <= 0
 cc_alt_vars_6 <= 0
 cc_alt_vars_9 <= 0
 cc_alt_vars_1 <= 0
Scenario 43
Bounds
 cc_alt_vars_4 <= 0
 cc_alt_vars_3 <= 0
 cc_alt_vars_2 <= 0
 cc_alt_vars_8 <= 0
 cc_alt_vars_11 <= 0
 cc_alt_vars_6 <= 0
 cc_alt_vars_9 <= 0
 cc_alt_vars_0 <= 0
Scenario 44
Bounds
 cc_alt_vars_4 <= 0
 cc_alt_vars_3 <= 0
 cc_alt_vars_8 <= 0
 cc_alt_vars_11 <= 0
 cc_alt_vars_6 <= 0
 cc_alt_vars_9 <= 0
 cc_alt_vars_1 <= 0
 cc_alt_vars_0 <= 0
Scenario 45
Bounds
 cc_alt_vars_4 <= 0
 cc_alt_vars_5 <= 0
 cc_alt_vars_2 <= 0
 cc_alt_vars_11 <= 0
 cc_alt_vars_6 <= 0
 cc_alt_vars_9 <= 0
 cc_alt_vars_1 <= 0
 cc_alt_vars_7 <= 0
Scenario 46
Bounds
 cc_alt_vars_4 <= 0
 cc_alt_vars_5 <= 0
 cc_alt_vars_2 <= 0
 cc_alt_vars_11 <= 0
 cc_alt_vars_6 <= 0
 cc_alt_vars_9 <= 0
 cc_alt_vars_0 <= 0
 cc_alt_vars_7 <= 0
Scenario 47
Bounds
 cc_alt_vars_4 <= 0
 cc_alt_vars_5 <= 0
 cc_alt_vars_11 <= 0
 cc_alt_vars_6 <= 0
 cc_alt_vars_9 <= 0
 cc_alt_vars_1 <= 0
 cc_alt_vars_0 <= 0
 cc_alt_vars_7 <= 0
Scenario 48
Bounds
 cc_alt_vars_5 <= 0
 cc_alt_vars_3 <= 0
 cc_alt_vars_2 <= 0
 cc_alt_vars_11 <= 0
 cc_alt_vars_6 <= 0
 cc_alt_vars_9 <= 0
 cc_alt_vars_1 <= 0
 cc_alt_vars_7 <= 0
Scenario 49
Bounds
 cc_alt_vars_5 <= 0
 cc_alt_vars_3 <= 0
 cc_alt_vars_2 <= 0
 cc_alt_vars_11 <= 0
 cc_alt_vars_6 <= 0
 cc_alt_vars_9 <= 0
 cc_alt_vars_0 <= 0
 cc_alt_vars_7 <= 0
Scenario 50
Bounds
 cc_alt_vars_5 <= 0
 cc_alt_vars_3 <= 0
 cc_alt_vars_11 <= 0
 cc_alt_vars_6 <= 0
 cc_alt_vars_9 <= 0
 cc_alt_vars_1 <= 0
 cc_alt_vars_0 <= 0
 cc_alt_vars_7 <= 0
Scenario 51
Bounds
 cc_alt_vars_4 <= 0
 cc_alt_vars_3 <= 0
 cc_alt_vars_2 <= 0
 cc_alt_vars_11 <= 0
 cc_alt_vars_6 <= 0
 cc_alt_vars_9 <= 0
 cc_alt_vars_1 <= 0
 cc_alt_vars_7 <= 0
Scenario 52
Bounds
 cc_alt_vars_4 <= 0
 cc_alt_vars_3 <= 0
 cc_alt_vars_2 <= 0
 cc_alt_vars_11 <= 0
 cc_alt_vars_6 <= 0
 cc_alt_vars_9 <= 0
 cc_alt_vars_0 <= 0
 cc_alt_vars_7 <= 0
Scenario 53
Bounds
 cc_alt_vars_4 <= 0
 cc_alt_vars_3 <= 0
 cc_alt_vars_11 <= 0
 cc_alt_vars_6 <= 0
 cc_alt_vars_9 <= 0
 cc_alt_vars_1 <= 0
 cc_alt_vars_0 <= 0
 cc_alt_vars_7 <= 0
Scenario 54
Bounds
 cc_alt_vars_4 <= 0
 cc_alt_vars_5 <= 0
 cc_alt_vars_2 <= 0
 cc_alt_vars_8 <= 0
 cc_alt_vars_10 <= 0
 cc_alt_vars_9 <= 0
 cc_alt_vars_1 <= 0
 cc_alt_vars_7 <= 0
Scenario 55
Bounds
 cc_alt_vars_4 <= 0
 cc_alt_vars_5 <= 0
 cc_alt_vars_2 <= 0
 cc_alt_vars_8 <= 0
 cc_alt_vars_10 <= 0
 cc_alt_vars_9 <= 0
 cc_alt_vars_0 <= 0
 cc_alt_vars_7 <= 0
Scenario 56
Bounds
 cc_alt_vars_4 <= 0
 cc_alt_vars_5 <= 0
 cc_alt_vars_8 <= 0
 cc_alt_vars_10 <= 0
 cc_alt_vars_9 <= 0
 cc_alt_vars_1 <= 0
 cc_alt_vars_0 <= 0
 cc_alt_vars_7 <= 0
Scenario 57
Bounds
 cc_alt_vars_5 <= 0
 cc_alt_vars_3 <= 0
 cc_alt_vars_2 <= 0
 cc_alt_vars_8 <= 0
 cc_alt_vars_10 <= 0
 cc_alt_vars_9 <= 0
 cc_alt_vars_1 <= 0
 cc_alt_vars_7 <= 0
Scenario 58
Bounds
 cc_alt_vars_5 <= 0
 cc_alt_vars_3 <= 0
 cc_alt_vars_2 <= 0
 cc_alt_vars_8 <= 0
 cc_alt_vars_10 <= 0
 cc_alt_vars_9 <= 0
 cc_alt_vars_0 <= 0
 cc_alt_vars_7 <= 0
Scenario 59
Bounds
 cc_alt_vars_5 <= 0
 cc_alt_vars_3 <= 0
 cc_alt_vars_8 <= 0
 cc_alt_vars_10 <= 0
 cc_alt_vars_9 <= 0
 cc_alt_vars_1 <= 0
 cc_alt_vars_0 <= 0
 cc_alt_vars_7 <= 0
Scenario 60
Bounds
 cc_alt_vars_4 <= 0
 cc_alt_vars_3 <= 0
 cc_alt_vars_2 <= 0
 cc_alt_vars_8 <= 0
 cc_alt_vars_10 <= 0
 cc_alt_vars_9 <= 0
 cc_alt_vars_1 <= 0
 cc_alt_vars_7 <= 0
Scenario 61
Bounds
 cc_alt_vars_4 <= 0
 cc_alt_vars_3 <= 0
 cc_alt_vars_2 <= 0
 cc_alt_vars_8 <= 0
 cc_alt_vars_10 <= 0
 cc_alt_vars_9 <= 0
 cc_alt_vars_0 <= 0
 cc_alt_vars_7 <= 0
Scenario 62
Bounds
 cc_alt_vars_4 <= 0
 cc_alt_vars_3 <= 0
 cc_alt_vars_8 <= 0
 cc_alt_vars_10 <= 0
 cc_alt_vars_9 <= 0
 cc_alt_vars_1 <= 0
 cc_alt_vars_0 <= 0
 cc_alt_vars_7 <= 0
Scenario 63
Bounds
 cc_alt_vars_4 <= 0
 cc_alt_vars_5 <= 0
 cc_alt_vars_2 <= 0
 cc_alt_vars_8 <= 0
 cc_alt_vars_6 <= 0
 cc_alt_vars_10 <= 0
 cc_alt_vars_9 <= 0
 cc_alt_vars_1 <= 0
Scenario 64
Bounds
 cc_alt_vars_4 <= 0
 cc_alt_vars_5 <= 0
 cc_alt_vars_2 <= 0
 cc_alt_vars_8 <= 0
 cc_alt_vars_6 <= 0
 cc_alt_vars_10 <= 0
 cc_alt_vars_9 <= 0
 cc_alt_vars_0 <= 0
Scenario 65
Bounds
 cc_alt_vars_4 <= 0
 cc_alt_vars_5 <= 0
 cc_alt_vars_8 <= 0
 cc_alt_vars_6 <= 0
 cc_alt_vars_10 <= 0
 cc_alt_vars_9 <= 0
 cc_alt_vars_1 <= 0
 cc_alt_vars_0 <= 0
Scenario 66
Bounds
 cc_alt_vars_5 <= 0
 cc_alt_vars_3 <= 0
 cc_alt_vars_2 <= 0
 cc_alt_vars_8 <= 0
 cc_alt_vars_6 <= 0
 cc_alt_vars_10 <= 0
 cc_alt_vars_9 <= 0
 cc_alt_vars_1 <= 0
Scenario 67
Bounds
 cc_alt_vars_5 <= 0
 cc_alt_vars_3 <= 0
 cc_alt_vars_2 <= 0
 cc_alt_vars_8 <= 0
 cc_alt_vars_6 <= 0
 cc_alt_vars_10 <= 0
 cc_alt_vars_9 <= 0
 cc_alt_vars_0 <= 0
Scenario 68
Bounds
 cc_alt_vars_5 <= 0
 cc_alt_vars_3 <= 0
 cc_alt_vars_8 <= 0
 cc_alt_vars_6 <= 0
 cc_alt_vars_10 <= 0
 cc_alt_vars_9 <= 0
 cc_alt_vars_1 <= 0
 cc_alt_vars_0 <= 0
Scenario 69
Bounds
 cc_alt_vars_4 <= 0
 cc_alt_vars_3 <= 0
 cc_alt_vars_2 <= 0
 cc_alt_vars_8 <= 0
 cc_alt_vars_6 <= 0
 cc_alt_vars_10 <= 0
 cc_alt_vars_9 <= 0
 cc_alt_vars_1 <= 0
Scenario 70
Bounds
 cc_alt_vars_4 <= 0
 cc_alt_vars_3 <= 0
 cc_alt_vars_2 <= 0
 cc_alt_vars_8 <= 0
 cc_alt_vars_6 <= 0
 cc_alt_vars_10 <= 0
 cc_alt_vars_9 <= 0
 cc_alt_vars_0 <= 0
Scenario 71
Bounds
 cc_alt_vars_4 <= 0
 cc_alt_vars_3 <= 0
 cc_alt_vars_8 <= 0
 cc_alt_vars_6 <= 0
 cc_alt_vars_10 <= 0
 cc_alt_vars_9 <= 0
 cc_alt_vars_1 <= 0
 cc_alt_vars_0 <= 0
Scenario 72
Bounds
 cc_alt_vars_4 <= 0
 cc_alt_vars_5 <= 0
 cc_alt_vars_2 <= 0
 cc_alt_vars_6 <= 0
 cc_alt_vars_10 <= 0
 cc_alt_vars_9 <= 0
 cc_alt_vars_1 <= 0
 cc_alt_vars_7 <= 0
Scenario 73
Bounds
 cc_alt_vars_4 <= 0
 cc_alt_vars_5 <= 0
 cc_alt_vars_2 <= 0
 cc_alt_vars_6 <= 0
 cc_alt_vars_10 <= 0
 cc_alt_vars_9 <= 0
 cc_alt_vars_0 <= 0
 cc_alt_vars_7 <= 0
Scenario 74
Bounds
 cc_alt_vars_4 <= 0
 cc_alt_vars_5 <= 0
 cc_alt_vars_6 <= 0
 cc_alt_vars_10 <= 0
 cc_alt_vars_9 <= 0
 cc_alt_vars_1 <= 0
 cc_alt_vars_0 <= 0
 cc_alt_vars_7 <= 0
Scenario 75
Bounds
 cc_alt_vars_5 <= 0
 cc_alt_vars_3 <= 0
 cc_alt_vars_2 <= 0
 cc_alt_vars_6 <= 0
 cc_alt_vars_10 <= 0
 cc_alt_vars_9 <= 0
 cc_alt_vars_1 <= 0
 cc_alt_vars_7 <= 0
Scenario 76
Bounds
 cc_alt_vars_5 <= 0
 cc_alt_vars_3 <= 0
 cc_alt_vars_2 <= 0
 cc_alt_vars_6 <= 0
 cc_alt_vars_10 <= 0
 cc_alt_vars_9 <= 0
 cc_alt_vars_0 <= 0
 cc_alt_vars_7 <= 0
Scenario 77
Bounds
 cc_alt_vars_5 <= 0
 cc_alt_vars_3 <= 0
 cc_alt_vars_6 <= 0
 cc_alt_vars_10 <= 0
 cc_alt_vars_9 <= 0
 cc_alt_vars_1 <= 0
 cc_alt_vars_0 <= 0
 cc_alt_vars_7 <= 0
Scenario 78
Bounds
 cc_alt_vars_4 <= 0
 cc_alt_vars_3 <= 0
 cc_alt_vars_2 <= 0
 cc_alt_vars_6 <= 0
 cc_alt_vars_10 <= 0
 cc_alt_vars_9 <= 0
 cc_alt_vars_1 <= 0
 cc_alt_vars_7 <= 0
Scenario 79
Bounds
 cc_alt_vars_4 <= 0
 cc_alt_vars_3 <= 0
 cc_alt_vars_2 <= 0
 cc_alt_vars_6 <= 0
 cc_alt_vars_10 <= 0
 cc_alt_vars_9 <= 0
 cc_alt_vars_0 <= 0
 cc_alt_vars_7 <= 0
Scenario 80
Bounds
 cc_alt_vars_4 <= 0
 cc_alt_vars_3 <= 0
 cc_alt_vars_6 <= 0
 cc_alt_vars_10 <= 0
 cc_alt_vars_9 <= 0
 cc_alt_vars_1 <= 0
 cc_alt_vars_0 <= 0
 cc_alt_vars_7 <= 0
End
